LAMMPS (3 Aug 2022)
#=======================================
# Input file for Stockmayer fluid with two ions
#   Created by Chris Balzer (balzer@caltech.edu)
#   See README.md for description
#==================================

#======
# Parameters
#======
# Initialize the system set up
units		      lj
boundary	    p p p
atom_style	  hybrid dipole sphere
WARNING: Atom style hybrid defines both, per-type and per-atom masses; both must be set, but only per-atom masses will be used (../atom_vec_hybrid.cpp:133)
atom_modify   map yes

# Read in input data
read_data	    system.data
Reading data file ...
  orthogonal box = (0 0 0) to (10.3464 10.3464 10.3464)
  1 by 1 by 1 MPI processor grid
  reading atoms ...
  1002 atoms
  read_data CPU = 0.002 seconds

# Group atoms
group         solvent  type 1
1000 atoms in group solvent
group         ions     type 2 3
2 atoms in group ions
group         anion    type 2
1 atoms in group anion
group         cation   type 3
1 atoms in group cation
group2ndx     groups.ndx cation anion
Writing groups to index file groups.ndx:
 writing group cation...done
 writing group anion...done

# Set mass and diameter of spheres
set type      1 mass 1.0 # solvent
Setting atom values ...
  1000 settings made for mass
set type      2 mass 1.0 # anion
Setting atom values ...
  1 settings made for mass
set type      3 mass 1.0 # cation
Setting atom values ...
  1 settings made for mass
set type      1 diameter 1.0 # solvent
Setting atom values ...
  1000 settings made for diameter
set type      2 diameter 1.0 # anion
Setting atom values ...
  1 settings made for diameter
set type      3 diameter 1.0 # cation
Setting atom values ...
  1 settings made for diameter

# Set charge of ions
set type      2 charge -13.626 # anion
Setting atom values ...
  1 settings made for charge
set type      3 charge  13.626 # cation
Setting atom values ...
  1 settings made for charge

# Non-bonded interactions
pair_style	  lj/cut/dipole/long 1.12246204831 5.06974
pair_coeff	  1 1 1.0 1.0 # solvent
pair_coeff	  2 2 1.0 1.0 # anion
pair_coeff	  3 3 1.0 1.0 # cation
kspace_style  ewald/disp 1e-4
pair_modify   shift yes mix geometric

# Set dipole
set group solvent dipole/random 4321 1.7494
Setting atom values ...
  1000 settings made for dipole/random

# Neighbor settings
neighbor	    0.4 bin
neigh_modify every 1 delay 0 one 10000

# Temperature computation
compute tempSph all  temp/sphere

#####################################################
# Minimization
minimize 0.0 1.0e-8 100000 100000

CITE-CITE-CITE-CITE-CITE-CITE-CITE-CITE-CITE-CITE-CITE-CITE-CITE

Your simulation uses code contributions which should be cited:

- GPU package (short-range, long-range and three-body potentials):

@Article{Brown11,
 author = {W. M. Brown, P. Wang, S. J. Plimpton, A. N. Tharrington},
 title = {Implementing Molecular Dynamics on Hybrid High Performance Computers - Short Range Forces},
 journal = {Comp.~Phys.~Comm.},
 year =    2011,
 volume =  182,
 pages =   {898--911}
}

@Article{Brown12,
 author = {W. M. Brown, A. Kohlmeyer, S. J. Plimpton, A. N. Tharrington},
 title = {Implementing Molecular Dynamics on Hybrid High Performance Computers - Particle-Particle Particle-Mesh},
 journal = {Comp.~Phys.~Comm.},
 year =    2012,
 volume =  183,
 pages =   {449--459}
}

@Article{Brown13,
 author = {W. M. Brown, Y. Masako},
 title = {Implementing Molecular Dynamics on Hybrid High Performance Computers â€“ Three-Body Potentials},
 journal = {Comp.~Phys.~Comm.},
 year =    2013,
 volume =  184,
 pages =   {2785--2793}
}

@Article{Trung15,
 author = {T. D. Nguyen, S. J. Plimpton},
 title = {Accelerating dissipative particle dynamics simulations for soft matter systems},
 journal = {Comput.~Mater.~Sci.},
 year =    2015,
 volume =  100,
 pages =   {173--180}
}

@Article{Trung17,
 author = {T. D. Nguyen},
 title = {GPU-accelerated Tersoff potentials for massively parallel Molecular Dynamics simulations},
 journal = {Comp.~Phys.~Comm.},
 year =    2017,
 volume =  212,
 pages =   {113--122}
}

@Article{Nikolskiy19,
 author = {V. Nikolskiy, V. Stegailov},
 title = {GPU acceleration of four-site water models in LAMMPS},
 journal = {Proceeding of the International Conference on Parallel Computing (ParCo 2019), Prague, Czech Republic},
 year =    2019
}

CITE-CITE-CITE-CITE-CITE-CITE-CITE-CITE-CITE-CITE-CITE-CITE-CITE

EwaldDisp initialization ...
Generated 3 of 3 mixed pair_coeff terms from geometric mixing rule
  G vector = 0.55961375,   accuracy = 0.0001
Generated 3 of 3 mixed pair_coeff terms from geometric mixing rule
Neighbor list info ...
  update every 1 steps, delay 0 steps, check yes
  max neighbors/atom: 10000, page size: 100000
  master list distance cutoff = 5.46974
  ghost atom cutoff = 5.46974
  binsize = 2.73487, bins = 4 4 4
  0 neighbor lists, perpetual/occasional/extra = 0 0 0
  vectors: nbox = 7, nkvec = 709
Per MPI rank memory allocation (min/avg/max) = 18.02 | 18.02 | 18.02 Mbytes
   Step          Temp          E_pair         E_mol          TotEng         Press
         0   0              1.2114127      0              1.2114127      11.106432
      4147   0             -5.5057953      0             -5.5057953      2.1125349
Loop time of 117.159 on 1 procs for 4147 steps with 1002 atoms

100.0% CPU use with 1 MPI tasks x 1 OpenMP threads

Minimization stats:
  Stopping criterion = linesearch alpha is zero
  Energy initial, next-to-last, final =
      1.21141271045144  -5.50579534736424  -5.50579534736424
  Force two-norm initial, final = 1095.6381 0.7458484
  Force max component initial, final = 76.684701 0.14927529
  Final line search alpha, max atom move = 2.0443824e-05 3.0517578e-06
  Iterations, force evaluations = 4147 9651

MPI task timing breakdown:
Section |  min time  |  avg time  |  max time  |%varavg| %total
---------------------------------------------------------------
Pair    | 0.69065    | 0.69065    | 0.69065    |   0.0 |  0.59
Kspace  | 114.74     | 114.74     | 114.74     |   0.0 | 97.94
Neigh   | 0.0011112  | 0.0011112  | 0.0011112  |   0.0 |  0.00
Comm    | 1.4804     | 1.4804     | 1.4804     |   0.0 |  1.26
Output  | 0          | 0          | 0          |   0.0 |  0.00
Modify  | 0.00030594 | 0.00030594 | 0.00030594 |   0.0 |  0.00
Other   |            | 0.2445     |            |       |  0.21

Nlocal:           1002 ave        1002 max        1002 min
Histogram: 1 0 0 0 0 0 0 0 0 0
Nghost:           7748 ave        7748 max        7748 min
Histogram: 1 0 0 0 0 0 0 0 0 0
Neighs:              0 ave           0 max           0 min
Histogram: 1 0 0 0 0 0 0 0 0 0

Total # of neighbors = 0
Ave neighs/atom = 0
Neighbor list builds = 654
Dangerous builds = 0
reset_timestep 0

#####################################################
# Initialization (NVT Sphere with spring)

velocity       all create 1.0 4928459
fix		         1 all nve/sphere update dipole
fix            2 all langevin 1.0 1.0 1.0 214323 omega yes
fix            3 ions recenter 0.5 0.5 0.5 units fraction shift all
fix            4 cation spring couple anion 50.0 0.0 0.0 0.0 1.25

thermo		     1000
thermo_style	 custom step temp c_tempSph press etotal pe ke epair ecoul elong evdwl enthalpy
thermo_modify  norm no
dump	       	 1 all custom 10000 dump.dipoleInit id type x y z q mux muy muz

timestep	     0.005
run		         100000
EwaldDisp initialization ...
Generated 3 of 3 mixed pair_coeff terms from geometric mixing rule
  G vector = 0.55961375,   accuracy = 0.0001
Generated 3 of 3 mixed pair_coeff terms from geometric mixing rule
Per MPI rank memory allocation (min/avg/max) = 18.21 | 18.21 | 18.21 Mbytes
   Step          Temp        c_tempSph        Press          TotEng         PotEng         KinEng         E_pair         E_coul         E_long         E_vdwl        Enthalpy
         0   1              0.49975037     3.0163223     -4015.3069     -5516.8069      1501.5        -5516.8069     -5975.2052     -291.04978      749.44807     -674.54493
      1000   1.0007997      1.004552       7.2128968     -2673.3311     -4176.0319      1502.7007     -4176.0319     -5402.7104     -299.72058      1526.3991      5315.3946
      2000   1.0023181      1.0072399      7.2628901     -2653.6061     -4158.5867      1504.9806     -4158.5867     -5410.3538     -300.9162       1552.6833      5390.4903
      3000   1.0148132      1.0123923      7.5970427     -2606.0138     -4129.7559      1523.742      -4129.7559     -5439.7511     -300.25479      1610.2501      5808.177
      4000   1.0322079      1.0176034      7.0258566     -2635.2836     -4185.1438      1549.8602     -4185.1438     -5375.6346     -298.58866      1489.0795      5146.2836
      5000   0.99457496     0.99944137     7.6408524     -2684.4278     -4177.7821      1493.3543     -4177.7821     -5499.4112     -303.26568      1624.8947      5778.2851
      6000   1.0170186      1.0290108      7.546068      -2586.5606     -4113.6141      1527.0535     -4113.6141     -5398.9237     -303.69074      1589.0004      5771.1727
      7000   0.98739885     0.99383232     6.8440716     -2713.6218     -4196.2012      1482.5794     -4196.2012     -5377.2977     -298.00781      1479.1043      4866.6073
      8000   1.01751        1.0113189      7.7482703     -2579.4049     -4107.1962      1527.7913     -4107.1962     -5449.5255     -299.02417      1641.3535      6002.2798
      9000   0.97120919     0.97767528     7.529282      -2717.762      -4176.0326      1458.2706     -4176.0326     -5484.7722     -298.5546       1607.2941      5621.3797
     10000   0.93801511     0.97506169     7.2932237     -2748.4584     -4156.8881      1408.4297     -4156.8881     -5424.4405     -295.0459       1562.5983      5329.2343
     11000   0.96948439     0.98911342     7.4665401     -2725.0192     -4180.7         1455.6808     -4180.7        -5474.2112     -303.83792      1597.3492      5544.6321
     12000   0.9937223      0.97765006     7.159292      -2698.0922     -4190.1662      1492.074      -4190.1662     -5418.2079     -302.93261      1530.9743      5231.263
     13000   0.99171445     0.99555097     7.5295203     -2636.151      -4125.2102      1489.0592     -4125.2102     -5431.2604     -304.24788      1610.298       5703.2547
     14000   0.98384097     0.99013921     7.3008586     -2731.581      -4208.8182      1477.2372     -4208.8182     -5473.0438     -302.37527      1566.6009      5354.5679
     15000   1.0134269      1.0255082      7.6885644     -2639.2444     -4160.9049      1521.6605     -4160.9049     -5485.4549     -300.87914      1625.4291      5876.3124
     16000   0.991267       0.98279432     7.1057246     -2717.5922     -4205.9796      1488.3874     -4205.9796     -5431.99       -301.60905      1527.6194      5152.4337
     17000   1.0142904      1.0173138      7.7559787     -2522.2944     -4045.2514      1522.957      -4045.2514     -5376.7124     -296.30703      1627.768       6067.9279
     18000   1.0346845      0.99884178     7.4585868     -2614.0161     -4167.5949      1553.5788     -4167.5949     -5448.8612     -299.05306      1580.3194      5646.8264
     19000   0.95759143     1.0130307      7.4947441     -2655.4407     -4093.2643      1437.8235     -4093.2643     -5385.9232     -301.84701      1594.506       5645.4482
     20000   1.0504923      1.0405219      7.1520262     -2630.6702     -4207.9844      1577.3141     -4207.9844     -5422.4288     -300.69143      1515.1359      5290.6377
     21000   1.0154472      1.0189526      7.3284985     -2680.0016     -4204.6956      1524.694      -4204.6956     -5455.7053     -301.2509       1552.2606      5436.7601
     22000   0.99091631     0.99683487     7.3873188     -2639.1229     -4126.9837      1487.8608     -4126.9837     -5388.2119     -302.78663      1564.0148      5542.7859
     23000   0.98199933     0.98544326     7.5362238     -2629.9027     -4104.3747      1474.472      -4104.3747     -5395.8188     -301.27198      1592.7161      5716.9275
     24000   0.95972315     1.001251       7.5720911     -2670.6414     -4111.6657      1441.0243     -4111.6657     -5411.2812     -302.45421      1602.0697      5715.9141
     25000   1.0049687      1.0067513      7.501946      -2525.4308     -4034.3913      1508.9605     -4034.3913     -5302.3758     -302.52397      1570.5085      5783.4347
     26000   1.0121579      1.0258159      7.5756405     -2621.0571     -4140.8122      1519.7551     -4140.8122     -5457.1871     -299.0128       1615.3877      5769.4295
     27000   0.98787363     0.9913684      7.0460055     -2656.3213     -4139.6135      1483.2923     -4139.6135     -5342.4811     -300.79256      1503.6601      5147.5621
     28000   1.0337305      1.0185281      7.1716316     -2642.7795     -4194.9258      1552.1463     -4194.9258     -5420.7925     -299.8901       1525.7568      5300.2425
     29000   0.98187266     0.97686515     7.7526449     -2660.7974     -4135.0792      1474.2818     -4135.0792     -5482.7849     -300.80203      1648.5078      5925.7326
     30000   0.9924151      0.99068476     7.4886849     -2622.6479     -4112.7592      1490.1113     -4112.7592     -5412.4745     -296.96668      1596.682       5671.5301
     31000   0.98995331     0.99465601     7.1167842     -2678.7037     -4165.1186      1486.4149     -4165.1186     -5373.8476     -299.68583      1508.4148      5203.5715
     32000   0.98679811     0.98527775     7.7813832     -2630.4389     -4112.1162      1481.6774     -4112.1162     -5455.5578     -299.61274      1643.0543      5987.9204
     33000   0.98762227     1.0130513      7.6871359     -2636.4511     -4119.3659      1482.9148     -4119.3659     -5444.5167     -296.91945      1622.0702      5877.5235
     34000   0.98721047     0.98693868     7.4657576     -2587.942      -4070.2385      1482.2965     -4070.2385     -5352.7032     -299.64198      1582.1067      5680.8426
     35000   1.0052395      0.99824507     7.2789485     -2714.5394     -4223.9066      1509.3671     -4223.9066     -5484.49       -302.20565      1562.7891      5347.3426
     36000   1.0154665      1.0013737      7.734562      -2519.1365     -4043.8595      1524.723      -4043.8595     -5366.435      -299.2951       1621.8707      6047.3654
     37000   0.98469633     1.0050572      7.1514471     -2764.9961     -4243.5177      1478.5215     -4243.5177     -5465.4956     -299.92118      1521.8992      5155.6703
     38000   1.0275717      1.0328433      7.6277729     -2562.8022     -4105.7011      1542.8989     -4105.7011     -5415.7696     -301.11044      1611.1789      5885.4242
     39000   0.99004258     1.0066873      7.5324413     -2658.8191     -4145.3681      1486.5489     -4145.3681     -5457.8465     -301.30586      1613.7843      5683.8218
     40000   0.98980658     0.9805215      7.3093118     -2686.6894     -4172.8839      1486.1946     -4172.8839     -5434.6719     -300.22022      1562.0081      5408.8219
     41000   1.0503019      1.0225735      7.436278      -2561.1373     -4138.1656      1577.0283     -4138.1656     -5396.795      -299.13483      1557.7642      5674.9969
     42000   1.01237        1.0025689      7.3298596     -2702.3578     -4222.4314      1520.0736     -4222.4314     -5504.5006     -299.96531      1582.0345      5415.9114
     43000   1.0314786      1.0128989      7.1609761     -2652.8014     -4201.5665      1548.7651     -4201.5665     -5431.5156     -300.02678      1529.9759      5278.4191
     44000   0.96483216     0.97767624     7.3789983     -2688.6271     -4137.3226      1448.6955     -4137.3226     -5405.6545     -301.31706      1569.6489      5484.0662
     45000   1.0602216      1.0348599      7.4678229     -2576.9019     -4168.8246      1591.9227     -4168.8246     -5442.3575     -301.85171      1575.3846      5694.1701
     46000   0.97359348     0.97167478     7.6485127     -2595.779      -4057.6296      1461.8506     -4057.6296     -5384.6965     -300.44868      1627.5155      5875.4181
     47000   1.003506       0.99867641     7.192726      -2728.3945     -4235.1587      1506.7643     -4235.1587     -5469.0427     -301.03183      1534.9158      5237.9909
     48000   0.99285855     0.99852735     7.1869168     -2665.262      -4156.0391      1490.7771     -4156.0391     -5378.9662     -305.48309      1528.4102      5294.6893
     49000   0.99544131     0.98390113     7.5709189     -2670.7609     -4165.416       1494.6551     -4165.416      -5467.0181     -305.32073      1606.9229      5714.4963
     50000   0.95802967     1.0000373      7.3615486     -2722.6123     -4161.0939      1438.4816     -4161.0939     -5434.7185     -300.18618      1573.8108      5430.7544
     51000   0.97630651     0.99916876     7.5347442     -2719.4259     -4185.3501      1465.9242     -4185.3501     -5491.2606     -303.53269      1609.4431      5625.7656
     52000   1.0146498      1.0288707      7.1579064     -2654.235      -4177.7317      1523.4967     -4177.7317     -5397.0577     -299.8373       1519.1634      5273.5855
     53000   0.98561848     1.0104378      7.3478709     -2679.0433     -4158.9494      1479.9061     -4158.9494     -5431.3667     -301.91529      1574.3326      5459.1745
     54000   1.0149996      1.0064975      7.3747912     -2617.9008     -4141.9227      1524.0219     -4141.9227     -5413.0617     -297.97413      1569.1131      5550.133
     55000   1.0136848      1.0129167      7.5664715     -2622.9401     -4144.9878      1522.0477     -4144.9878     -5443.3364     -298.90346      1597.2521      5757.3913
     56000   0.97198825     0.97041224     7.5691917     -2628.8816     -4088.322       1459.4404     -4088.322      -5384.2484     -301.12747      1597.0539      5754.4626
     57000   0.99145254     1.0054555      7.6584297     -2582.4782     -4071.1442      1488.666      -4071.1442     -5379.6912     -298.46247      1607.0094      5899.7026
     58000   1.0107826      1.000544       7.4731059     -2601.4294     -4119.1195      1517.6901     -4119.1195     -5393.8379     -298.7461       1573.4645      5675.4939
     59000   0.96763762     0.95835953     7.4511332     -2701.8468     -4154.7547      1452.9079     -4154.7547     -5443.9541     -302.71588      1591.9153      5550.7403
     60000   1.039655       1.0334358      7.2304982     -2636.8699     -4197.9118      1561.042      -4197.9118     -5438.1626     -302.12264      1542.3735      5371.3506
     61000   0.99591474     0.98317315     7.9796168     -2596.0771     -4091.4431      1495.366      -4091.4431     -5473.551      -301.19032      1683.2982      6241.838
     62000   0.99111952     1.0057698      7.4866614     -2725.2259     -4213.3918      1488.166      -4213.3918     -5512.7979     -302.13517      1601.5412      5566.711
     63000   1.0106087      0.99115818     7.5134698     -2631.2163     -4148.6453      1517.429      -4148.6453     -5451.9556     -302.88444      1606.1948      5690.4125
     64000   0.95970916     0.9876034      7.3409892     -2795.465      -4236.4683      1441.0033     -4236.4683     -5517.1285     -302.1215       1582.7817      5335.1309
     65000   1.0313111      1.0079026      7.4596515     -2654.8838     -4203.3974      1548.5137     -4203.3974     -5489.4963     -298.40414      1584.503       5607.1379
     66000   0.99373625     0.99309813     7.6229425     -2647.3301     -4139.4251      1492.095      -4139.4251     -5470.1381     -299.43484      1630.1479      5795.5464
     67000   0.97943431     0.95868621     7.7342807     -2619.1602     -4089.7808      1470.6206     -4089.7808     -5420.1736     -302.61422      1633.007       5947.0302
     68000   0.9707118      0.97565564     7.8272285     -2683.5459     -4141.0696      1457.5238     -4141.0696     -5512.0152     -298.39923      1669.3448      5985.59
     69000   1.0036949      0.99237929     7.1224023     -2665.351      -4172.3989      1507.0479     -4172.3989     -5384.4905     -297.48371      1509.5753      5223.1465
     70000   0.99327337     0.99865241     7.6942854     -2568.0714     -4059.4714      1491.4        -4059.4714     -5394.0173     -300.18729      1634.7332      5953.8218
     71000   0.97086546     0.98834222     7.4365239     -2595.3062     -4053.0606      1457.7545     -4053.0606     -5317.6211     -297.57993      1562.1404      5641.1003
     72000   0.99656975     1.0063281      7.3696891     -2659.87       -4156.2194      1496.3495     -4156.2194     -5444.0538     -294.03557      1581.87        5502.5129
     73000   1.0322766      1.0177387      7.6060475     -2577.1782     -4127.1416      1549.9634     -4127.1416     -5423.5953     -302.83855      1599.2923      5846.986
     74000   1.015898       1.0186325      7.0902073     -2759.1658     -4284.5366      1525.3709     -4284.5366     -5518.7087     -300.6189       1534.7909      5093.6739
     75000   1.0545118      1.0149793      7.4247164     -2647.8119     -4231.1613      1583.3494     -4231.1613     -5491.0712     -304.51893      1564.4288      5575.517
     76000   0.94727507     0.99869005     7.5459762     -2676.1043     -4098.4378      1422.3335     -4098.4378     -5415.0578     -300.71583      1617.3358      5681.5273
     77000   1.0467212      1.0012724      7.4133991     -2533.9113     -4105.5632      1571.6519     -4105.5632     -5365.5191     -298.07726      1558.0332      5676.8831
     78000   0.98286309     0.9696922      7.1696552     -2726.2674     -4202.0363      1475.7689     -4202.0363     -5424.1204     -302.16661      1524.2507      5214.5656
     79000   1.0485538      1.036464       7.4738359     -2571.8979     -4146.3015      1574.4036     -4146.3015     -5423.873      -296.87763      1574.4492      5705.8339
     80000   1.0092065      1.0167021      7.5818626     -2606.2111     -4121.5347      1515.3236     -4121.5347     -5429.5223     -299.20533      1607.1929      5791.1669
     81000   1.0560376      1.0177154      7.4008065     -2576.1861     -4161.8266      1585.6405     -4161.8266     -5429.736      -303.11942      1571.0288      5620.6612
     82000   0.95644844     0.96908801     7.4305954     -2714.5574     -4150.6647      1436.1073     -4150.6647     -5423.2517     -299.21809      1571.805       5515.2829
     83000   1.0379935      1.0293104      7.3970911     -2594.2996     -4152.8469      1558.5473     -4152.8469     -5418.5959     -298.72534      1564.4744      5598.4327
     84000   0.95337506     0.9706073      7.3151784     -2728.821      -4160.3136      1431.4927     -4160.3136     -5414.823      -298.54119      1553.0505      5373.1879
     85000   0.97429792     0.98441401     7.4784556     -2710.3582     -4173.2665      1462.9083     -4173.2665     -5462.8709     -300.82594      1590.4304      5572.4903
     86000   1.0182067      1.0069865      7.7750768     -2581.1883     -4110.0256      1528.8373     -4110.0256     -5452.6008     -300.3048       1642.88        6030.1863
     87000   1.0474264      1.0148381      7.6357218     -2578.6262     -4151.3369      1572.7107     -4151.3369     -5463.4624     -299.44715      1611.5727      5878.4042
     88000   0.95962603     0.96713708     7.3927518     -2694.2039     -4135.0824      1440.8785     -4135.0824     -5411.2126     -302.17303      1578.3032      5493.7223
     89000   0.97293495     0.98587327     7.3939659     -2637.5227     -4098.3845      1460.8618     -4098.3845     -5364.3        -302.26831      1568.1838      5551.7482
     90000   1.0227925      1.0150645      7.2620066     -2674.1513     -4209.8741      1535.7229     -4209.8741     -5447.7227     -303.48022      1541.3288      5368.9667
     91000   0.98563446     0.97401512     7.5842094     -2674.5698     -4154.5         1479.9301     -4154.5        -5476.4157     -300.04148      1621.9572      5725.4074
     92000   1.0023943      1.0046373      7.6325803     -2666.5865     -4171.6816      1505.0951     -4171.6816     -5500.5848     -305.0757       1633.9789      5786.9645
     93000   1.0243195      1.011099       7.6437256     -2605.2285     -4143.2442      1538.0157     -4143.2442     -5455.6692     -302.03021      1614.4553      5860.6666
     94000   0.98971208     0.9929452      7.3760657     -2663.8235     -4149.8762      1486.0527     -4149.8762     -5418.9584     -300.85428      1569.9364      5505.6218
     95000   1.0022773      0.9805469      7.1525123     -2704.6636     -4209.5831      1504.9194     -4209.5831     -5434.1043     -300.73803      1525.2592      5217.1825
     96000   0.98355497     0.97734346     7.1190444     -2706.4052     -4183.213       1476.8078     -4183.213      -5405.8697     -301.56553      1524.2222      5178.3732
     97000   1.0001626      0.98575683     7.6489664     -2626.32       -4128.0642      1501.7442     -4128.0642     -5441.7525     -302.04938      1615.7377      5845.3796
     98000   0.99811966     0.99023029     7.3290233     -2713.8914     -4212.5681      1498.6767     -4212.5681     -5488.5336     -303.5097       1579.4752      5403.4515
     99000   0.97516844     0.97889247     7.3020631     -2725.7255     -4189.9409      1464.2154     -4189.9409     -5456.6267     -300.09753      1566.7834      5361.7574
    100000   0.95350657     0.97432551     7.3944524     -2678.7631     -4110.4532      1431.6901     -4110.4532     -5384.0137     -296.79558      1570.3561      5511.0466
Loop time of 1210.62 on 1 procs for 100000 steps with 1002 atoms

Performance: 35684.236 tau/day, 82.602 timesteps/s
100.0% CPU use with 1 MPI tasks x 1 OpenMP threads

MPI task timing breakdown:
Section |  min time  |  avg time  |  max time  |%varavg| %total
---------------------------------------------------------------
Pair    | 7.3625     | 7.3625     | 7.3625     |   0.0 |  0.61
Kspace  | 1177.6     | 1177.6     | 1177.6     |   0.0 | 97.28
Neigh   | 0.016508   | 0.016508   | 0.016508   |   0.0 |  0.00
Comm    | 15.681     | 15.681     | 15.681     |   0.0 |  1.30
Output  | 0.015056   | 0.015056   | 0.015056   |   0.0 |  0.00
Modify  | 8.6632     | 8.6632     | 8.6632     |   0.0 |  0.72
Other   |            | 1.237      |            |       |  0.10

Nlocal:           1002 ave        1002 max        1002 min
Histogram: 1 0 0 0 0 0 0 0 0 0
Nghost:           7650 ave        7650 max        7650 min
Histogram: 1 0 0 0 0 0 0 0 0 0
Neighs:              0 ave           0 max           0 min
Histogram: 1 0 0 0 0 0 0 0 0 0

Total # of neighbors = 0
Ave neighs/atom = 0
Neighbor list builds = 10804
Dangerous builds = 1

undump         1
unfix          1
unfix          2
unfix          3
unfix          4

#####################################################
# Equilibration (NVT Sphere with colvars)

fix		         1 all nve/sphere update dipole
fix            2 all langevin 1.0 1.0 1.0 214323 omega yes
fix            3 ions colvars input.equil.colvars output equil

thermo		     1000
thermo_style	 custom step temp c_tempSph press etotal pe ke epair ecoul elong evdwl enthalpy
WARNING: New thermo_style command, previous thermo_modify settings will be lost (../output.cpp:903)
thermo_modify  norm no
dump	       	 1 all custom 10000 dump.dipoleEquil id type x y z q mux muy muz

timestep	     0.005
run		         500000
EwaldDisp initialization ...
Generated 3 of 3 mixed pair_coeff terms from geometric mixing rule
  G vector = 0.55961375,   accuracy = 0.0001
Generated 3 of 3 mixed pair_coeff terms from geometric mixing rule
colvars: Creating proxy instance
colvars: ----------------------------------------------------------------------
colvars: Initializing the collective variables module, version 2022-05-24.
colvars: Please cite Fiorin et al, Mol Phys 2013:
colvars:   https://doi.org/10.1080/00268976.2013.813594
colvars: as well as all other papers listed below for individual features used.
colvars: This version was built with the C++11 standard or higher.
colvars: Using LAMMPS interface, version "2022-05-09".
colvars: ----------------------------------------------------------------------
colvars: Reading new configuration from file "input.equil.colvars":
colvars: # units = "" [default]
colvars: # indexFile = "groups.ndx"
colvars: The following index groups are currently defined:
colvars:   cation (1 atoms)
colvars:   anion (1 atoms)
colvars: # smp = on [default]
colvars: # colvarsTrajFrequency = 500
colvars: # colvarsRestartFrequency = 0 [default]
colvars: # scriptedColvarForces = off [default]
colvars: # scriptingAfterBiases = off [default]
colvars: ----------------------------------------------------------------------
colvars:   Initializing a new collective variable.
colvars:   # name = "dist"
colvars:   Initializing a new "distance" component.
colvars:     # name = "" [default]
colvars:     # componentCoeff = 1 [default]
colvars:     # componentExp = 1 [default]
colvars:     # period = 0 [default]
colvars:     # wrapAround = 0 [default]
colvars:     # forceNoPBC = off [default]
colvars:     # scalable = on [default]
colvars:       Initializing atom group "group1".
colvars:       # name = "" [default]
colvars:       # centerToOrigin = off [default]
colvars:       # centerToReference = off [default]
colvars:       # rotateToReference = off [default]
colvars:       # atomsOfGroup = "" [default]
colvars:       # indexGroup = "cation"
colvars:       # psfSegID =  [default]
colvars:       # atomsFile = "" [default]
colvars:       # dummyAtom = ( 0 , 0 , 0 ) [default]
colvars:       # enableFitGradients = on [default]
colvars:       # printAtomIDs = off [default]
colvars:       Atom group "group1" defined with 1 atoms requested.
colvars:       Initializing atom group "group2".
colvars:       # name = "" [default]
colvars:       # centerToOrigin = off [default]
colvars:       # centerToReference = off [default]
colvars:       # rotateToReference = off [default]
colvars:       # atomsOfGroup = "" [default]
colvars:       # indexGroup = "anion"
colvars:       # psfSegID =  [default]
colvars:       # atomsFile = "" [default]
colvars:       # dummyAtom = ( 0 , 0 , 0 ) [default]
colvars:       # enableFitGradients = on [default]
colvars:       # printAtomIDs = off [default]
colvars:       Atom group "group2" defined with 1 atoms requested.
colvars:     # oneSiteSystemForce = off [default]
colvars:     # oneSiteTotalForce = off [default]
colvars:   All components initialized.
colvars:   # timeStepFactor = 1 [default]
colvars:   # width = 0.01
colvars:   # lowerBoundary = 0.75
colvars:   # upperBoundary = 2
colvars:   # hardLowerBoundary = off [default]
colvars:   # hardUpperBoundary = off [default]
colvars:   # expandBoundaries = off [default]
colvars:   # extendedLagrangian = off [default]
colvars:   # outputValue = on [default]
colvars:   # outputVelocity = off [default]
colvars:   # outputTotalForce = off [default]
colvars:   # outputAppliedForce = off [default]
colvars:   # subtractAppliedForce = off [default]
colvars:   # runAve = off [default]
colvars:   # corrFunc = off [default]
colvars: ----------------------------------------------------------------------
colvars: Collective variables initialized, 1 in total.
colvars: ----------------------------------------------------------------------
colvars:   Initializing a new "abf" instance.
colvars:   # name = "abf_dist"
colvars:   # colvars = { dist }
colvars:   # stepZeroData = off [default]
colvars:   # outputEnergy = on
colvars:   # outputFreq = 1000
colvars:   # timeStepFactor = 1 [default]
colvars:   WARNING: ABF should not be run without a thermostat or at 0 Kelvin!
colvars:   # applyBias = on [default]
colvars:   # updateBias = on [default]
colvars:   # hideJacobian = off [default]
colvars:   Jacobian (geometric) forces will be included in reported free energy gradients.
colvars:   # fullSamples = 1000
colvars:   # inputPrefix =  [default]
colvars:   # historyFreq = 1000000
colvars:   # shared = off [default]
colvars:   # maxForce =  [default]
colvars:   # integrate = on [default]
colvars:   Finished ABF setup.
colvars: ----------------------------------------------------------------------
colvars:   Initializing a new "harmonicwalls" instance.
colvars:   # name = "wall_dist"
colvars:   # colvars = { dist }
colvars:   # stepZeroData = off [default]
colvars:   # outputEnergy = off [default]
colvars:   # outputFreq = 0 [default]
colvars:   # timeStepFactor = 1 [default]
colvars:   # writeTISamples = off [default]
colvars:   # writeTIPMF = off [default]
colvars:   # forceConstant = 1 [default]
colvars:   # targetForceConstant = -1 [default]
colvars:   # lowerWalls = { 0.7 }
colvars:   # upperWalls = { 2.05 }
colvars:   # lowerWallConstant = 1
colvars:   # upperWallConstant = 1
colvars:   The lower wall force constant for colvar "dist" will be rescaled to 10000 according to the specified width (0.01).
colvars:   The upper wall force constant for colvar "dist" will be rescaled to 10000 according to the specified width (0.01).
colvars: ----------------------------------------------------------------------
colvars: Collective variables biases initialized, 2 in total.
colvars: ----------------------------------------------------------------------
colvars: Collective variables module (re)initialized.
colvars: ----------------------------------------------------------------------
colvars: The restart output state file will be "rest.colvars.state".
colvars: The final output state file will be "equil.colvars.state".
colvars: Opening trajectory file "equil.colvars.traj".
colvars: Setting initial step number from LAMMPS: 100000
colvars: Re-initialized atom group for variable "dist":0/0. 1 atoms: total mass = 1, total charge = 13.626.
colvars: Re-initialized atom group for variable "dist":0/1. 1 atoms: total mass = 1, total charge = -13.626.
colvars:   Prepared sample and gradient buffers at step 100000.
Per MPI rank memory allocation (min/avg/max) = 18.22 | 18.22 | 18.22 Mbytes
   Step          Temp        c_tempSph        Press          TotEng         PotEng         KinEng         E_pair         E_coul         E_long         E_vdwl        Enthalpy
    100000   0.95350657     0.97432551     7.3944524     -2678.7631     -4110.4532      1431.6901     -4110.4532     -5384.0137     -296.79558      1570.3561      5511.0466
    101000   0.97448283     0.98121828     7.3587806     -2691.161      -4154.3469      1463.186      -4154.3469     -5412.613      -303.03771      1561.3038      5459.1401
    102000   1.0569054      1.0499454      7.2994127     -2650.5314     -4237.4749      1586.9435     -4237.4749     -5492.2205     -304.3781       1559.1237      5434.016
    103000   1.0041227      1.0125632      7.3505317     -2665.3927     -4173.0829      1507.6902     -4173.0829     -5445.7186     -300.47746      1573.1131      5475.7722
    104000   1.0135563      0.99162494     7.5733108     -2568.6717     -4090.5265      1521.8548     -4090.5265     -5388.0956     -298.79427      1596.3634      5819.2346
    105000   0.98135129     0.99230007     7.525741      -2640.0384     -4113.5374      1473.499      -4113.5374     -5402.9151     -300.39708      1589.7748      5695.1815
    106000   1.0052783      0.98967285     7.655556      -2642.9725     -4152.3979      1509.4254     -4152.3979     -5488.4169     -296.73626      1632.7553      5836.0255
    107000   0.99166671     1.0188757      7.1566879     -2681.346      -4170.3336      1488.9876     -4170.3336     -5388.1183     -301.34685      1519.1315      5245.125
    108000   1.027436       0.99818086     7.4783033     -2669.2637     -4211.9588      1542.6951     -4211.9588     -5505.3812     -302.2154       1595.6378      5613.4161
    109000   0.98569578     0.98750811     7.6154877     -2625.692      -4105.7142      1480.0222     -4105.7142     -5413.8952     -301.06312      1609.2441      5808.9279
    110000   0.98994401     0.98709369     7.718216      -2643.3167     -4129.7177      1486.4009     -4129.7177     -5466.364      -299.08269      1635.729       5905.0811
    111000   0.99586179     0.99493954     7.5084495     -2641.4082     -4136.6947      1495.2865     -4136.6947     -5427.6913     -301.31307      1592.3097      5674.6603
    112000   1.0385547      1.0112357      7.3700352     -2611.6455     -4171.0353      1559.3898     -4171.0353     -5427.5854     -304.74311      1561.2932      5551.1207
    113000   1.053318       1.0163165      7.3462079     -2640.5502     -4222.1072      1581.557      -4222.1072     -5476.2791     -304.70162      1558.8735      5495.8257
    114000   1.0188367      1.0107847      7.2162955     -2669.7963     -4199.5796      1529.7833     -4199.5796     -5442.3156     -298.0181       1540.7542      5322.6937
    115000   0.95961352     1.0049769      7.4700174     -2659.914      -4100.7737      1440.8597     -4100.7737     -5385.8987     -297.65352      1582.7785      5613.5886
    116000   0.98201746     0.99106262     7.0753046     -2751.0554     -4225.5546      1474.4992     -4225.5546     -5451.5495     -297.84523      1523.8401      5085.2785
    117000   1.001163       0.99894771     7.1516254     -2691.0884     -4194.3347      1503.2463     -4194.3347     -5427.6551     -299.84535      1533.1657      5229.7755
    118000   0.99693175     0.975096       7.4932072     -2675.9145     -4172.8075      1496.893      -4172.8075     -5464.4034     -304.6016       1596.1975      5623.2722
    119000   1.0434087      1.0257396      7.6011901     -2541.6825     -4108.3607      1566.6782     -4108.3607     -5417.5575     -295.88704      1605.0839      5877.1019
    120000   0.96128406     0.99970812     7.4934249     -2726.6603     -4170.0283      1443.368      -4170.0283     -5466.3992     -300.60109      1596.972       5572.7675
    121000   1.0097588      1.0272398      7.8559221     -2606.3728     -4122.5257      1516.1529     -4122.5257     -5481.5614     -302.59342      1661.6292      6094.543
    122000   0.9602589      1.0002027      7.1319559     -2689.6124     -4131.4411      1441.8287     -4131.4411     -5351.2528     -294.70503      1514.5167      5209.4664
    123000   0.94907115     0.98202015     7.317974      -2724.0063     -4149.0367      1425.0303     -4149.0367     -5416.9139     -300.85559      1568.7328      5381.0988
    124000   0.94896796     1.0002007      7.5214258     -2713.1656     -4138.041       1424.8754     -4138.041      -5464.7867     -295.51097      1622.2567      5617.2749
    125000   1.0118773      1.0203847      7.3925062     -2616.4149     -4135.7487      1519.3338     -4135.7487     -5406.4705     -303.98732      1574.7091      5571.2393
    126000   0.98579128     0.98642372     7.7377779     -2629.7219     -4109.8875      1480.1656     -4109.8875     -5463.0086     -304.05028      1657.1714      5940.3419
    127000   1.0155572      0.98309895     7.3442291     -2622.2012     -4147.0602      1524.8591     -4147.0602     -5399.5295     -303.15407      1555.6234      5511.9832
    128000   1.0568835      1.012953       7.2522183     -2627.2453     -4214.1558      1586.9105     -4214.1558     -5459.4254     -298.45934      1543.7289      5405.0314
    129000   0.99411295     0.9861995      7.4049954     -2678.8235     -4171.4841      1492.6606     -4171.4841     -5457.9103     -305.30369      1591.7298      5522.6632
    130000   1.0026125      1.0089364      7.4829443     -2640.6067     -4146.0294      1505.4227     -4146.0294     -5422.5017     -301.06509      1577.5373      5647.2132
    131000   1.031507       1.0078492      7.4990242     -2571.2887     -4120.0964      1548.8077     -4120.0964     -5399.1101     -299.02637      1578.04        5734.3407
    132000   1.0153022      1.0224975      7.3562909     -2645.7481     -4170.2244      1524.4763     -4170.2244     -5427.8187     -300.29511      1557.8894      5501.7954
    133000   0.96403869     0.99333857     7.170732      -2730.8225     -4178.3266      1447.5041     -4178.3266     -5423.6938     -300.40486      1545.772       5211.2032
    134000   0.96064475     0.98953988     7.2237466     -2710.717      -4153.1251      1442.4081     -4153.1251     -5380.1165     -303.01604      1530.0075      5290.0257
    135000   0.96513153     0.97209571     7.2136648     -2711.9735     -4161.1185      1449.145      -4161.1185     -5401.0349     -301.72915      1541.6456      5277.6029
    136000   1.029116       1.0249081      7.0474343     -2710.4623     -4255.6801      1545.2177     -4255.6801     -5455.8244     -302.75258      1502.8969      5095.0036
    137000   1.05065        1.045132       7.5794988     -2574.3016     -4151.8525      1577.5509     -4151.8525     -5448.109      -299.84695      1596.1034      5820.4583
    138000   0.99913311     1.0017285      7.3195241     -2709.1757     -4209.374       1500.1984     -4209.374      -5472.782      -298.06115      1561.4692      5397.6464
    139000   0.98424854     0.99407151     7.0726827     -2682.0932     -4159.9424      1477.8492     -4159.9424     -5359.3939     -301.11135      1500.5629      5151.3369
    140000   0.98758242     0.97850547     7.3207653     -2728.3309     -4211.1859      1482.855      -4211.1859     -5489.7608     -300.14436      1578.7192      5379.8659
    141000   1.0454493      1.0246341      7.4994305     -2635.3541     -4205.0963      1569.7422     -4205.0963     -5491.9451     -298.20489      1585.0537      5670.7253
    142000   1.0382654      1.0178287      7.3462819     -2599.813      -4158.7686      1558.9555     -4158.7686     -5413.09       -300.86572      1555.1872      5536.6449
    143000   0.98405815     0.99527839     7.3029854     -2693.754      -4171.3173      1477.5633     -4171.3173     -5429.1851     -302.25865      1560.1264      5394.7503
    144000   1.0100463      0.99349047     7.1366136     -2639.8575     -4156.4421      1516.5845     -4156.4421     -5389.6032     -294.26879      1527.4299      5264.3798
    145000   0.98861528     0.99848591     7.3714946     -2739.0379     -4223.4437      1484.4058     -4223.4437     -5488.2468     -305.51146      1570.3146      5425.3447
    146000   1.0369835      0.99154803     7.7064367     -2521.0692     -4078.0999      1557.0307     -4078.0999     -5390.0606     -300.69911      1612.6598      6014.2823
    147000   1.0358796      1.0118846      7.9316075     -2514.1505     -4069.5237      1555.3732     -4069.5237     -5431.9168     -297.91643      1660.3095      6270.5914
    148000   0.96600982     0.99400886     7.1463855     -2768.0948     -4218.5586      1450.4637     -4218.5586     -5457.7956     -301.91881      1541.1558      5146.9656
    149000   1.0438287      1.0085004      7.2947883     -2588.8427     -4156.1514      1567.3088     -4156.1514     -5393.175      -300.91202      1537.9356      5490.5829
    150000   1.0470695      1.0221463      6.6945127     -2747.7317     -4319.9066      1572.1749     -4319.9066     -5467.263      -300.51333      1447.8697      4666.8518
    151000   1.0185322      1.0265632      7.4229319     -2620.6632     -4149.9893      1529.326      -4149.9893     -5438.187      -300.22143      1588.4192      5600.6893
    152000   1.014291       1.0201195      7.2522242     -2577.9144     -4100.8723      1522.9579     -4100.8723     -5343.8471     -298.45476      1541.4295      5454.3689
    153000   1.0022956      1.0090832      7.4349384     -2615.109      -4120.0558      1504.9469     -4120.0558     -5406.7495     -302.17164      1588.8653      5619.5414
    154000   0.98199446     0.99947367     7.3038935     -2660.2028     -4134.6675      1474.4647     -4134.6675     -5388.9012     -302.54989      1556.7835      5429.3073
    155000   1.0096776      1.0103046      7.3051785     -2668.1282     -4184.1591      1516.0309     -4184.1591     -5427.3406     -301.20027      1544.3818      5422.8052
    156000   1.0316721      1.0108679      7.3866213     -2598.651      -4147.7067      1549.0557     -4147.7067     -5411.2773     -300.51394      1564.0845      5582.4852
    157000   0.96056238     0.99180231     7.2199404     -2783.7386     -4226.023       1442.2844     -4226.023      -5479.0252     -299.47162      1552.4738      5212.7884
    158000   0.95687        0.98869387     7.8264323     -2666.0836     -4102.8239      1436.7403     -4102.8239     -5462.8957     -301.42159      1661.4934      6002.1704
    159000   0.96717108     0.98211308     7.5690185     -2715.3959     -4167.6033      1452.2074     -4167.6033     -5496.373      -297.94348      1626.7132      5667.7565
    160000   1.017954       1.0215501      7.3368868     -2622.8159     -4151.2738      1528.4579     -4151.2738     -5399.6645     -301.68879      1550.0795      5503.2364
    161000   1.0117098      1.0228548      7.6790221     -2619.3246     -4138.4069      1519.0823     -4138.4069     -5462.9822     -303.06209      1627.6374      5885.6635
    162000   1.0589382      1.0441839      7.3195232     -2562.4391     -4152.4348      1589.9957     -4152.4348     -5383.2175     -303.57867      1534.3614      5544.3819
    163000   0.99937692     1.0030438      7.5696688     -2704.1497     -4204.7142      1500.5645     -4204.7142     -5522.2489     -300.62749      1618.1622      5679.7229
    164000   0.97421647     0.98893573     7.5102561     -2646.9055     -4109.6915      1462.786      -4109.6915     -5402.9732     -301.64481      1594.9265      5671.1639
    165000   0.98115411     0.9747045      6.9893713     -2728.794      -4201.9969      1473.2029     -4201.9969     -5394.6721     -300.99686      1493.672       5012.3635
    166000   0.98481057     0.99065617     7.3530146     -2614.9396     -4093.6327      1478.6931     -4093.6327     -5347.6196     -300.3918       1554.3787      5528.9752
    167000   0.99700977     0.98913271     7.3199414     -2647.3683     -4144.3785      1497.0102     -4144.3785     -5413.6294     -294.78895      1564.0398      5459.9158
    168000   0.99884182     1.0151392      7.3613065     -2704.4919     -4204.2529      1499.761      -4204.2529     -5472.7714     -299.74098      1568.2595      5448.6067
    169000   1.0374656      1.0097763      7.2291489     -2608.0554     -4165.8101      1557.7547     -4165.8101     -5410.9418     -298.33381      1543.4655      5398.6706
    170000   0.9982715      0.98292025     7.6114713     -2604.8142     -4103.7189      1498.9047     -4103.7189     -5413.4689     -303.42934      1613.1793      5825.3573
    171000   1.0350747      1.0260092      7.2224036     -2609.5351     -4163.6997      1554.1646     -4163.6997     -5396.7536     -302.25354      1535.3074      5389.72
    172000   0.98987147     0.98960609     7.5544884     -2600.1239     -4086.416       1486.292      -4086.416      -5390.1582     -298.16145      1601.9037      5766.9354
    173000   1.0291132      1.0190296      7.5561334     -2616.8782     -4162.0917      1545.2134     -4162.0917     -5465.6291     -299.99183      1603.5293      5752.0031
    174000   1.0363263      1.0179945      7.5961441     -2553.1371     -4109.181       1556.044      -4109.181      -5408.3458     -299.53233      1598.6971      5860.0585
    175000   1.0276213      1.0384448      7.2174441     -2656.6482     -4199.6216      1542.9734     -4199.6216     -5444.0555     -298.19629      1542.6302      5337.114
    176000   1.0069118      1.0222379      7.5227182     -2574.2847     -4086.1627      1511.878      -4086.1627     -5366.4756     -299.27559      1579.5885      5757.5873
    177000   0.99322739     0.98212259     7.4905251     -2629.2539     -4120.5848      1491.3309     -4120.5848     -5407.0844     -297.09518      1583.5948      5666.9623
    178000   1.0148037      1.0105442      7.198984      -2702.7115     -4226.4393      1523.7278     -4226.4393     -5473.1852     -299.68325      1546.4292      5270.605
    179000   1.0093348      1.0189513      7.5160205     -2587.0412     -4102.5573      1515.5161     -4102.5573     -5381.0544     -300.80578      1579.3029      5737.4127
    180000   1.0439941      1.0315467      7.3781102     -2610.2238     -4177.7809      1567.5571     -4177.7809     -5431.1032     -301.98432      1555.3066      5561.486
    181000   1.0073172      1.0001141      7.5266337     -2680.5372     -4193.0241      1512.4868     -4193.0241     -5495.0706     -301.63133      1603.6778      5655.6714
    182000   0.99524668     0.98565342     7.5091444     -2654.5033     -4148.8661      1494.3629     -4148.8661     -5432.5014     -303.4148       1587.0501      5662.3348
    183000   0.98863963     0.9999418      7.5751487     -2672.7627     -4157.2051      1484.4424     -4157.2051     -5474.8134     -303.21915      1620.8275      5717.1792
    184000   0.96069706     0.9499179      7.3256521     -2715.2054     -4157.692       1442.4866     -4157.692      -5423.3749     -300.5107       1566.1936      5398.4038
    185000   0.98483295     0.9788645      7.395142      -2704.8639     -4183.5905      1478.7267     -4183.5905     -5470.7971     -295.03302      1582.2396      5485.7096
    186000   1.0289884      1.0068695      7.3987977     -2664.3296     -4209.3557      1545.0261     -4209.3557     -5491.1537     -295.98333      1577.7813      5530.2928
    187000   1.0080624      1.0042631      7.5308225     -2612.3941     -4125.9998      1513.6057     -4125.9998     -5414.5344     -304.16931      1592.7039      5728.4538
    188000   1.0029886      1.0246333      7.350508      -2663.8856     -4169.873       1505.9874     -4169.873      -5440.49       -301.00565      1571.6227      5477.253
    189000   1.027297       1.0064597      7.4669546     -2577.2478     -4119.7342      1542.4865     -4119.7342     -5386.5411     -305.60065      1572.4076      5692.8626
    190000   1.0240356      1.0203935      7.7667405     -2649.9467     -4187.5361      1537.5894     -4187.5361     -5531.4037     -303.58066      1647.4482      5952.1949
    191000   0.98615893     0.98334518     7.1214944     -2679.6536     -4160.3712      1480.7176     -4160.3712     -5369.2863     -301.78901      1510.704       5207.8384
    192000   1.0321351      1.0168149      7.5681169     -2644.4445     -4194.1954      1549.7509     -4194.1954     -5498.9866     -301.84831      1606.6395      5737.7094
    193000   1.0055268      1.0087188      7.5153063     -2639.9716     -4149.7701      1509.7985     -4149.7701     -5448.1671     -303.18001      1601.577       5683.6913
    194000   1.0017166      0.98441606     7.2602627     -2683.6354     -4187.7129      1504.0775     -4187.7129     -5430.5699     -304.45167      1547.3087      5357.5511
    195000   1.0233457      1.0009636      7.4458215     -2611.9354     -4148.4889      1536.5535     -4148.4889     -5410.9059     -302.62771      1565.0447      5634.7687
    196000   0.96564444     0.99415226     7.4121177     -2655.8383     -4105.7534      1449.9151     -4105.7534     -5388.9794     -303.26304      1586.489       5553.5368
    197000   1.0503036      1.0092121      7.9622867     -2508.8967     -4085.9276      1577.0309     -4085.9276     -5458.7344     -300.0732       1672.8801      6309.8244
    198000   1.0359804      0.99770307     7.3243915     -2662.212      -4217.7366      1555.5246     -4217.7366     -5468.8119     -302.06636      1553.1416      5450.0009
    199000   0.9660147      1.008729       7.3384885     -2651.4974     -4101.9684      1450.4711     -4101.9684     -5357.0898     -297.87459      1552.996       5476.3289
    200000   0.98290092     0.98068014     7.6863796     -2571.2451     -4047.0708      1475.8257     -4047.0708     -5366.3562     -301.16342      1620.4488      5941.8919
    201000   0.98185689     0.99564379     7.3617547     -2691.7397     -4165.9978      1474.2581     -4165.9978     -5445.2248     -305.63427      1584.8612      5461.8554
    202000   1.0062271      1.0462372      7.7564209     -2632.8215     -4143.6715      1510.85       -4143.6715     -5494.791      -297.86111      1648.9807      5957.8905
    203000   1.0156591      1.0007054      7.6649864     -2623.0771     -4148.0893      1525.0122     -4148.0893     -5462.8389     -300.26538      1615.015       5866.3656
    204000   1.0082129      1.0024767      7.4379471     -2587.352      -4101.1837      1513.8317     -4101.1837     -5383.0629     -296.95306      1578.8322      5650.6308
    205000   1.0064843      1.0116582      7.2495184     -2702.302      -4213.5383      1511.2363     -4213.5383     -5458.1261     -303.27691      1547.8648      5326.9844
    206000   0.99657049     0.99655737     7.7029249     -2559.8194     -4056.17        1496.3506     -4056.17       -5372.5105     -298.30809      1614.6486      5971.6425
    207000   1.01921        1.0098062      7.4459009     -2642.3554     -4172.6992      1530.3438     -4172.6992     -5447.4165     -301.31914      1576.0364      5604.4366
    208000   1.0002214      0.97882098     7.4353088     -2701.1125     -4202.9449      1501.8324     -4202.9449     -5489.3604     -299.36553      1585.781       5533.9482
    209000   1.0153331      1.0056572      7.1769636     -2671.2347     -4195.7573      1524.5226     -4195.7573     -5426.0386     -300.86816      1531.1495      5277.6928
    210000   1.0041348      1.0031702      7.5748383     -2556.7705     -4064.4788      1507.7083     -4064.4788     -5360.0343     -294.99171      1590.5472      5832.8277
    211000   0.97266278     0.98277023     7.5711314     -2646.1522     -4106.6053      1460.4532     -4106.6053     -5414.4939     -301.35611      1609.2447      5739.3403
    212000   1.0116628      1.0110317      7.2930366     -2680.6188     -4199.6305      1519.0117     -4199.6305     -5457.789      -300.13091      1558.2894      5396.8667
    213000   1.0368577      1.0229233      7.3102207     -2634.3811     -4191.2229      1556.8418     -4191.2229     -5453.7127     -302.64022      1565.13        5462.1368
    214000   0.98569898     0.97895613     7.1475154     -2674.677      -4154.7041      1480.027      -4154.7041     -5371.2477     -294.96048      1511.5041      5241.6348
    215000   0.98021065     0.99036136     7.377797      -2759.702      -4231.4883      1471.7863     -4231.4883     -5515.4852     -297.91238      1581.9092      5411.6608
    216000   1.0364654      1.0261535      7.2754288     -2587.1285     -4143.3812      1556.2527     -4143.3812     -5390.2727     -299.75763      1546.6492      5470.8553
    217000   0.94531354     0.96826244     7.4179911     -2685.1456     -4104.5338      1419.3883     -4104.5338     -5375.0025     -300.67137      1571.1401      5530.7347
    218000   1.0303497      0.98341355     7.3653568     -2676.8279     -4223.8979      1547.07       -4223.8979     -5487.4949     -301.44396      1565.041       5480.7567
    219000   1.019633       1.0085918      7.5726632     -2600.3578     -4131.3367      1530.979      -4131.3367     -5438.228      -302.51551      1609.4068      5786.8313
    220000   0.97903327     0.98670254     7.5338366     -2669.3899     -4139.4083      1470.0185     -4139.4083     -5457.3843     -296.89324      1614.8692      5674.7964
    221000   0.99447319     1.0069605      7.1503207     -2712.1692     -4205.3707      1493.2015     -4205.3707     -5434.9541     -298.03652      1527.62        5207.2496
    222000   1.0147003      1.0122457      7.439029      -2622.1369     -4145.7095      1523.5725     -4145.7095     -5430.2169     -302.44446      1586.9519      5617.0442
    223000   1.0014405      1.0148028      7.2690177     -2718.2596     -4221.9225      1503.663      -4221.9225     -5493.0261     -299.87612      1570.9797      5332.6236
    224000   0.99326758     0.98549718     7.2647736     -2665.2668     -4156.6581      1491.3913     -4156.6581     -5401.6553     -301.18706      1546.1843      5380.9156
    225000   1.0085526      1.0140428      7.420589      -2699.9647     -4214.3065      1514.3418     -4214.3065     -5498.5533     -300.61077      1584.8576      5518.7929
    226000   1.0019667      1.0085702      7.02887       -2729.2623     -4233.7154      1504.4531     -4233.7154     -5448.4804     -294.28138      1509.0464      5055.6425
    227000   0.98803879     0.99821084     7.2348896     -2675.2362     -4158.7765      1483.5403     -4158.7765     -5393.074      -296.02264      1530.3202      5337.8479
    228000   1.0807762      1.0423251      7.4795989     -2512.0427     -4134.8281      1622.7855     -4134.8281     -5411.467      -300.51955      1577.1585      5772.072
    229000   1.0065919      0.97989496     7.5142598     -2639.3808     -4150.7785      1511.3977     -4150.7785     -5447.4592     -302.59597      1599.2766      5683.1229
    230000   1.0087239      1.0059654      7.2536596     -2680.8862     -4195.4851      1514.5989     -4195.4851     -5454.8654     -298.30928      1557.6895      5352.9868
    231000   1.0182449      1.0087828      7.4532838     -2564.3207     -4093.2155      1528.8948     -4093.2155     -5382.0136     -299.09836      1587.8965      5690.6483
    232000   1.0264976      1.0266935      7.4784841     -2544.9455     -4086.2316      1541.2861     -4086.2316     -5352.229      -303.33462      1569.3319      5737.9344
    233000   1.0169311      1.0097207      7.3033992     -2623.9423     -4150.8643      1526.922      -4150.8643     -5405.8528     -300.18316      1555.1717      5465.0204
    234000   1.0137782      1.0039977      7.4441356     -2558.0027     -4080.1906      1522.188      -4080.1906     -5346.5652     -304.76592      1571.1405      5686.8343
    235000   1.0132638      0.99943576     7.7730602     -2572.4961     -4093.9118      1521.4156     -4093.9118     -5446.86       -301.27532      1654.2235      6036.645
    236000   1.0177631      0.995556       7.5129437     -2547.7296     -4075.9008      1528.1712     -4075.9008     -5337.6737     -303.49083      1565.2636      5773.3166
    237000   1.0036627      0.99378808     7.7265778     -2671.8783     -4178.8778      1506.9995     -4178.8778     -5530.1916     -304.04147      1655.3553      5885.7807
    238000   1.0258448      1.0014498      7.2015701     -2655.2278     -4195.5338      1540.306      -4195.5338     -5422.5836     -303.39169      1530.4415      5320.9529
    239000   0.99532288     0.9939565      7.1927272     -2618.4387     -4112.916       1494.4773     -4112.916      -5352.5419     -300.3789       1540.0049      5347.948
    240000   1.0050696      0.99383054     7.6726966     -2619.1516     -4128.2635      1509.1119     -4128.2635     -5443.7778     -295.86565      1611.3799      5878.8307
    241000   1.0296931      1.0170532      7.3702631     -2584.6038     -4130.688       1546.0842     -4130.688      -5397.0246     -299.7406       1566.0772      5578.4147
    242000   0.98394917     0.99987924     7.6038558     -2669.2481     -4146.6478      1477.3997     -4146.6478     -5453.9743     -303.03697      1610.3634      5752.4887
    243000   0.93398338     0.95225037     7.4629169     -2766.989      -4169.3651      1402.3761     -4169.3651     -5471.7991     -301.0435       1603.4775      5498.6493
    244000   1.026488       1.0185709      7.7643641     -2561.4154     -4102.6872      1541.2718     -4102.6872     -5436.1006     -300.60889      1634.0223      6038.0942
    245000   1.0014414      1.0090168      7.2112269     -2629.3289     -4132.9931      1503.6642     -4132.9931     -5367.2855     -300.90278      1535.1952      5357.5473
    246000   0.99167817     0.99417002     7.2423874     -2690.5143     -4179.5191      1489.0048     -4179.5191     -5415.0542     -301.46192      1536.997       5330.8741
    247000   0.97019589     0.9936667      7.4472829     -2676.5069     -4133.2561      1456.7491     -4133.2561     -5427.488      -300.38444      1594.6163      5571.8158
    248000   1.0273068      1.0006374      7.3135477     -2629.3384     -4171.8397      1542.5012     -4171.8397     -5414.0358     -302.81433      1545.0105      5470.8643
    249000   0.97910592     0.98202098     7.4453436     -2730.31       -4200.4375      1470.1275     -4200.4375     -5496.8339     -305.2337       1601.6301      5515.8649
    250000   0.98957259     0.9873441      7.4122165     -2644.6135     -4130.4568      1485.8432     -4130.4568     -5408.9192     -301.0527       1579.5152      5564.871
    251000   1.0357178      1.0186457      7.4231158     -2582.5473     -4137.6777      1555.1303     -4137.6777     -5414.3395     -300.78805      1577.4499      5639.0089
    252000   1.0153909      1.0198899      7.0825128     -2671.193      -4195.8024      1524.6094     -4195.8024     -5412.4231     -300.68577      1517.3064      5173.1245
    253000   1.0208409      1.0082486      7.8355301     -2621.6211     -4154.4137      1532.7926     -4154.4137     -5500.8747     -302.9944       1649.4554      6056.7092
    254000   1.0711365      1.0333179      7.6563735     -2482.2288     -4090.5403      1608.3115     -4090.5403     -5402.214      -300.75567      1612.4293      5997.6745
    255000   1.0119503      0.97305171     7.4843447     -2581.5755     -4101.0189      1519.4434     -4101.0189     -5374.9142     -300.23705      1574.1323      5707.7954
    256000   1.0154042      0.98982979     7.1678991     -2716.2638     -4240.8932      1524.6294     -4240.8932     -5478.2992     -302.47474      1539.8807      5222.6243
    257000   1.0281152      1.0069695      7.5893567     -2573.3731     -4117.088       1543.7149     -4117.088      -5418.7131     -300.89812      1602.5231      5832.3051
    258000   1.0082285      1.0310937      7.3828127     -2625.6699     -4139.5249      1513.8551     -4139.5249     -5392.2129     -303.98863      1556.6765      5551.2481
    259000   0.93294626     0.964533       7.1068646     -2845.1997     -4246.0185      1400.8188     -4246.0185     -5483.4707     -303.23765      1540.6898      5026.0889
    260000   0.96638748     0.96750699     7.2066183     -2724.6773     -4175.7081      1451.0308     -4175.7081     -5423.2793     -299.37329      1546.9445      5257.0947
    261000   1.0115675      0.98967111     7.5701977     -2590.0264     -4108.8951      1518.8687     -4108.8951     -5402.0181     -300.53216      1593.6552      5794.432
    262000   1.012851       1.0284202      7.2165312     -2650.9593     -4171.7551      1520.7957     -4171.7551     -5396.2015     -300.19681      1524.6433      5341.7917
    263000   1.0222911      1.001355       7.5715317     -2578.4818     -4113.4518      1534.97       -4113.4518     -5409.7065     -300.76961      1597.0243      5807.4541
    264000   0.97394204     0.9976792      7.1216809     -2684.5875     -4146.9614      1462.374      -4146.9614     -5364.8523     -299.03645      1516.9273      5203.1111
    265000   0.99338071     0.99365527     7.5343535     -2652.9256     -4144.4867      1491.5611     -4144.4867     -5447.4855     -299.12193      1602.1207      5691.8332
    266000   0.98168408     0.97572713     7.3391461     -2605.1831     -4079.1817      1473.9987     -4079.1817     -5322.0297     -298.79545      1541.6434      5523.3715
    267000   1.0384416      1.0276196      7.656743      -2539.9346     -4099.1546      1559.22       -4099.1546     -5402.7237     -297.53967      1601.1088      5940.378
    268000   1.0391839      1.0158734      7.4823133     -2585.0713     -4145.406       1560.3346     -4145.406      -5429.6037     -302.58551      1586.7832      5702.0498
    269000   1.0419589      1.0407283      7.2905738     -2586.1657     -4150.6669      1564.5013     -4150.6669     -5397.795      -300.96444      1548.0925      5488.5921
    270000   1.0178427      0.99953592     7.661172      -2591.5948     -4119.8856      1528.2908     -4119.8856     -5429.7221     -302.59415      1612.4307      5893.6232
    271000   1.0019353      0.99462039     7.2669745     -2690.7304     -4195.1363      1504.4059     -4195.1363     -5454.9801     -302.17242      1562.0162      5357.8897
    272000   0.99621673     1.0084115      7.6217621     -2599.2579     -4095.0773      1495.8194     -4095.0773     -5417.4713     -302.13215      1624.5261      5842.3113
    273000   1.0015176      1.0053173      7.5901442     -2628.7728     -4132.5515      1503.7787     -4132.5515     -5431.0429     -303.1373       1601.6287      5777.7775
    274000   1.014067       1.0086824      7.5499113     -2604.8415     -4127.4631      1522.6215     -4127.4631     -5431.5506     -297.12868      1601.2162      5757.1485
    275000   1.0434238      1.0411175      7.3423244     -2586.6273     -4153.3282      1566.7009     -4153.3282     -5407.8851     -296.29943      1550.8564      5545.4474
    276000   1.0041932      0.97901771     7.4559084     -2625.8828     -4133.6789      1507.7962     -4133.6789     -5398.4758     -300.00623      1564.8031      5631.9932
    277000   0.97545596     1.0046061      7.2187684     -2678.7461     -4143.3933      1464.6471     -4143.3933     -5394.791      -298.05399      1549.4517      5316.4828
    278000   0.99692835     0.97139891     7.3256072     -2637.3755     -4134.2634      1496.8879     -4134.2634     -5387.0315     -305.36661      1558.1347      5476.1839
    279000   1.0227753      1.0340111      7.3100568     -2649.3562     -4185.0534      1535.6972     -4185.0534     -5450.7646     -297.84981      1563.561       5446.9802
    280000   0.97582757     1.0016673      7.3025306     -2730.1802     -4195.3853      1465.2051     -4195.3853     -5459.8589     -300.54478      1565.0183      5357.8205
    281000   1.0109967      1.0063627      7.3347806     -2667.7433     -4185.7548      1518.0116     -4185.7548     -5455.7167     -298.97096      1568.9328      5455.9763
    282000   0.96616502     0.98153329     7.4214803     -2684.7748     -4135.4716      1450.6968     -4135.4716     -5425.1237     -299.8173       1589.4693      5534.97
    283000   0.98532399     0.97779517     7.1240623     -2718.5509     -4198.0149      1479.464      -4198.0149     -5417.8224     -301.51396      1521.3216      5171.7852
    284000   1.0055629      1.0233969      7.7942824     -2683.3314     -4193.1841      1509.8527     -4193.1841     -5541.1897     -302.27572      1650.2813      5949.3145
    285000   0.97093213     1.0037376      7.1344697     -2776.0232     -4233.8778      1457.8546     -4233.8778     -5473.3231     -300.64316      1540.0885      5125.8397
    286000   0.98855489     0.98952582     7.353549      -2664.1597     -4148.4749      1484.3152     -4148.4749     -5411.981      -297.88155      1561.3876      5480.347
    287000   0.99023364     1.0212958      7.2635663     -2736.5728     -4223.4086      1486.8358     -4223.4086     -5472.9942     -299.83954      1549.4252      5308.2726
    288000   1.0402675      1.0163102      7.5088237     -2590.3617     -4152.3233      1561.9616     -4152.3233     -5446.0932     -296.90237      1590.6722      5726.1213
    289000   0.96936086     0.98150877     7.5412932     -2708.1405     -4163.6359      1455.4953     -4163.6359     -5474.1924     -299.77254      1610.329       5644.3044
    290000   1.0449906      1.0309621      7.3037321     -2598.7468     -4167.8002      1569.0534     -4167.8002     -5411.7813     -302.56296      1546.544       5490.5846
    291000   0.96423018     0.98235236     7.6336194     -2601.4783     -4049.2699      1447.7916     -4049.2699     -5366.3398     -300.85507      1617.925       5853.2235
    292000   1.0304432      1.0292654      7.4061303     -2634.6854     -4181.8959      1547.2105     -4181.8959     -5455.5087     -301.98527      1575.598       5568.0583
    293000   1.0366203      1.0249927      7.2975086     -2608.2416     -4164.727       1556.4854     -4164.727      -5421.7382     -298.43987      1555.4511      5474.1969
    294000   0.98738377     1.0176713      7.4956755     -2684.1549     -4166.7116      1482.5567     -4166.7116     -5470.3208     -300.20944      1603.8185      5617.7656
    295000   1.0374769      1.0190237      7.4555712     -2590.8529     -4148.6245      1557.7715     -4148.6245     -5420.2036     -301.37788      1572.957       5666.6497
    296000   1.0560213      1.0526278      7.7606552     -2492.1286     -4077.7446      1585.616      -4077.7446     -5399.5946     -303.55824      1625.4082      6103.2732
    297000   1.0093509      1.0267635      7.2815819     -2668.3037     -4183.8441      1515.5404     -4183.8441     -5433.3409     -300.75617      1550.253       5396.4949
    298000   1.0413007      1.0534333      7.542253      -2656.0898     -4219.6029      1563.5131     -4219.6029     -5529.5376     -300.53023      1610.465       5697.4181
    299000   0.96162355     0.97507205     7.4708392     -2697.046      -4140.9237      1443.8778     -4140.9237     -5426.5831     -301.62864      1587.288       5577.3668
    300000   0.95123735     0.97727483     7.4699552     -2690.2952     -4118.578       1428.2829     -4118.578      -5410.5033     -303.93408      1595.8593      5583.1385
    301000   1.0124518      1.0009588      7.0984739     -2694.9318     -4215.1281      1520.1963     -4215.1281     -5436.8875     -298.70525      1520.4647      5167.0637
    302000   0.98860654     0.96950538     7.0877085     -2694.3274     -4178.7202      1484.3927     -4178.7202     -5400.8706     -303.40495      1525.5554      5155.7446
    303000   0.97479406     0.98570119     7.4979184     -2733.5375     -4197.1908      1463.6533     -4197.1908     -5501.0852     -301.25261      1605.1471      5570.8672
    304000   1.0165331      1.014793       7.702092      -2546.3256     -4072.6501      1526.3244     -4072.6501     -5387.3475     -300.34022      1615.0376      5984.2139
    305000   1.0493241      1.0178019      7.1088577     -2594.1357     -4169.6959      1575.5602     -4169.6959     -5389.1958     -299.62347      1519.1234      5279.3603
    306000   1.004252       0.99662381     7.55145       -2664.5011     -4172.3854      1507.8843     -4172.3854     -5487.223      -305.15748      1619.9952      5699.1931
    307000   1.0020111      1.0103658      7.4957743     -2692.6756     -4197.1953      1504.5196     -4197.1953     -5492.8358     -298.26184      1593.9023      5609.3543
    308000   1.0182628      1.0138339      7.2148604     -2704.203      -4233.1245      1528.9215     -4233.1245     -5462.0554     -301.69878      1530.6296      5286.6976
    309000   1.0089349      1.0047421      7.3096909     -2714.1202     -4229.0359      1514.9157     -4229.0359     -5479.3311     -301.15454      1551.4498      5381.8109
    310000   1.0119024      1.0193991      7.4145998     -2584.8415     -4104.213       1519.3714     -4104.213      -5360.2392     -302.64297      1558.6692      5627.2826
    311000   1.0026636      1.0195137      7.2951639     -2677.4906     -4182.99        1505.4994     -4182.99       -5427.1328     -299.35754      1543.5003      5402.351
    312000   0.98646456     0.98542278     7.3425021     -2600.129      -4081.3056      1481.1765     -4081.3056     -5334.5622     -303.52912      1556.7857      5532.1425
    313000   0.9867752      0.9974716      7.7773326     -2571.6511     -4053.294       1481.643      -4053.294      -5389.4804     -295.26796      1631.4544      6042.2219
    314000   1.0037456      1.017553       7.3173144     -2617.4351     -4124.559       1507.1239     -4124.559      -5371.6968     -297.77341      1544.9112      5486.9396
    315000   0.9995263      1.001635       7.3147116     -2625.8927     -4126.6815      1500.7887     -4126.6815     -5375.1123     -301.02694      1549.4577      5475.5992
    316000   1.0539743      1.0268669      7.4835713     -2564.8241     -4147.3665      1582.5424     -4147.3665     -5420.2598     -301.24416      1574.1375      5723.6903
    317000   1.017502       1.010837       7.2762521     -2681.6088     -4209.388       1527.7792     -4209.388      -5454.1132     -303.48671      1548.2119      5377.2868
    318000   1.0606002      1.016004       7.7961365     -2516.1902     -4108.6814      1592.4912     -4108.6814     -5445.1821     -299.5715       1636.0722      6118.5093
    319000   1.0226683      1.0106852      7.3577751     -2600.2735     -4135.81        1535.5365     -4135.81       -5400.8785     -307.01976      1572.0883      5548.9139
    320000   1.0248911      1.0050815      7.2895432     -2675.1393     -4214.0134      1538.8741     -4214.0134     -5468.1089     -302.56546      1556.661       5398.477
    321000   1.0170151      1.0321411      7.4552262     -2618.7781     -4145.8262      1527.0481     -4145.8262     -5408.7853     -299.81249      1562.7716      5638.3423
    322000   0.97663335     0.9874186      7.4631572     -2758.7601     -4225.1751      1466.415      -4225.1751     -5518.3634     -304.01646      1597.2048      5507.1444
    323000   1.0291842      1.0089831      7.6010641     -2638.9691     -4184.2892      1545.32       -4184.2892     -5500.6913     -300.7777       1617.1798      5779.6757
    324000   0.96198821     0.98112171     7.256794      -2705.8572     -4150.2825      1444.4253     -4150.2825     -5416.6526     -298.30727      1564.6774      5331.4874
    325000   0.99949189     0.99446298     7.4588277     -2684.5427     -4185.2798      1500.7371     -4185.2798     -5470.4764     -304.27926      1589.4758      5576.5666
    326000   0.97982355     1.0053734      7.5953162     -2638.0904     -4109.2955      1471.2051     -4109.2955     -5440.0041     -298.77707      1629.4857      5774.1882
    327000   1.0100916      1.0130133      7.1696092     -2681.9387     -4198.5912      1516.6525     -4198.5912     -5411.4301     -303.45276      1516.2916      5258.8433
    328000   0.98618763     0.97681484     7.5128928     -2660.8716     -4141.6323      1480.7607     -4141.6323     -5438.8296     -299.81954      1597.0169      5660.1182
    329000   0.9889396      0.99806678     7.2153852     -2704.5958     -4189.4886      1484.8928     -4189.4886     -5423.3681     -304.21356      1538.0931      5286.886
    330000   1.0344628      1.0247888      7.3429718     -2637.8063     -4191.0522      1553.2459     -4191.0522     -5444.1932     -303.71977      1556.8608      5494.9855
    331000   1.0225287      1.0112994      7.6370242     -2599.728      -4135.0549      1535.3269     -4135.0549     -5458.3972     -300.62724      1623.9695      5858.7449
    332000   1.006206       1.0126639      7.6364731     -2605.2514     -4116.0697      1510.8183     -4116.0697     -5442.5124     -297.16055      1623.6033      5852.6111
    333000   1.0400391      1.0139833      7.1750968     -2615.2649     -4176.8836      1561.6187     -4176.8836     -5399.659      -300.27009      1523.0455      5331.595
    334000   1.057611       1.010886       7.3998192     -2608.3267     -4196.3296      1588.0029     -4196.3296     -5458.5619     -301.61964      1563.8519      5587.4271
    335000   1.0122892      0.99281573     7.6346077     -2587.8468     -4107.799       1519.9523     -4107.799      -5426.4752     -298.24071      1616.9169      5867.9497
    336000   1.0339739      1.0297432      7.3139409     -2633.6632     -4186.175       1552.5118     -4186.175      -5441.3455     -297.60142      1552.7719      5466.9751
    337000   0.98271902     0.97877044     7.8703804     -2583.4232     -4058.9758      1475.5526     -4058.9758     -5424.4662     -294.23057      1659.721       6133.5061
    338000   0.96551488     0.97572549     7.1899346     -2763.3349     -4213.0555      1449.7206     -4213.0555     -5446.9667     -299.85359      1533.7648      5199.9588
    339000   0.98651418     0.9907623      7.2828866     -2608.4057     -4089.6567      1481.251      -4089.6567     -5334.1336     -293.64551      1538.1224      5457.838
    340000   1.0173004      0.99444293     7.5228509     -2620.6574     -4148.1339      1527.4765     -4148.1339     -5439.5739     -301.01327      1592.4532      5711.3616
    341000   0.97967105     0.98932425     7.5315548     -2646.3873     -4117.3634      1470.9761     -4117.3634     -5415.4476     -303.75422      1601.8384      5695.2717
    342000   1.0181915      1.0244431      7.4476866     -2635.5275     -4164.3421      1528.8145     -4164.3421     -5452.6208     -300.54876      1588.8275      5613.2424
    343000   1.0106059      0.99829138     7.4771218     -2609.0458     -4126.4705      1517.4247     -4126.4705     -5423.4475     -299.92635      1596.9033      5672.3254
    344000   1.021752       1.0088723      7.5083739     -2607.7947     -4141.9554      1534.1607     -4141.9554     -5434.3132     -297.57178      1589.9296      5708.19
    345000   1.0121728      1.0032135      7.7082527     -2559.7895     -4079.567       1519.7775     -4079.567      -5391.2059     -298.05366      1609.6926      5977.5734
    346000   0.97272195     0.99075605     7.2829745     -2740.2004     -4200.7424      1460.542      -4200.7424     -5448.1131     -303.49896      1550.8697      5326.1407
    347000   0.95384176     0.96545213     7.3862028     -2670.8568     -4103.0502      1432.1934     -4103.0502     -5369.684      -302.2785       1568.9123      5509.816
    348000   0.98596504     1.0062345      7.5041496     -2644.3585     -4124.785       1480.4265     -4124.785      -5426.2225     -302.06837      1603.5059      5666.9476
    349000   0.96865887     0.96636189     7.7253376     -2637.9315     -4092.3728      1454.4413     -4092.3728     -5451.1452     -293.82267      1652.5951      5918.3538
    350000   0.96917787     0.9668905      7.4571725     -2704.7663     -4159.9869      1455.2206     -4159.9869     -5440.9891     -301.50339      1582.5056      5554.5098
    351000   1.016204       1.0316326      7.1642135     -2690.4724     -4216.3028      1525.8304     -4216.3028     -5440.4217     -304.29541      1528.4143      5244.3335
    352000   1.0122432      1.0080882      7.7601972     -2581.6019     -4101.4851      1519.8832     -4101.4851     -5445.0405     -300.87357      1644.429       6013.2926
    353000   0.99170611     0.97583079     7.607741      -2598.7819     -4087.8286      1489.0467     -4087.8286     -5401.5089     -296.14557      1609.8259      5827.258
    354000   1.0136285      0.99615299     7.5453879     -2580.7232     -4102.6864      1521.9632     -4102.6864     -5399.8448     -301.26686      1598.4253      5776.2568
    355000   0.98867272     0.97526778     7.1601471     -2723.1538     -4207.6459      1484.4921     -4207.6459     -5446.0327     -300.56866      1538.9554      5207.1485
    356000   1.0146452      0.99644714     7.4781808     -2636.6369     -4160.1266      1523.4897     -4160.1266     -5440.8799     -299.93416      1580.6875      5645.9071
    357000   0.98984646     1.0115445      7.4830775     -2630.831      -4117.0855      1486.2545     -4117.0855     -5413.7285     -299.9874       1596.6304      5657.1364
    358000   1.0161834      0.97760528     7.7656727     -2524.2746     -4050.0739      1525.7994     -4050.0739     -5392.0523     -296.79249      1638.7709      6076.6844
    359000   0.97962794     0.9869906      7.2912573     -2731.2672     -4202.1786      1470.9114     -4202.1786     -5467.837      -296.74935      1562.4078      5344.2476
    360000   1.0099307      1.0258912      7.5293381     -2651.2925     -4167.7034      1516.4109     -4167.7034     -5483.6099     -300.74452      1616.651       5687.9114
    361000   0.97958283     0.98537545     7.5300523     -2639.9983     -4110.842       1470.8436     -4110.842      -5412.4225     -298.47515      1600.0557      5699.9966
    362000   1.0273815      1.0232438      7.7450219     -2557.4434     -4100.0567      1542.6133     -4100.0567     -5443.9178     -302.02068      1645.8818      6020.6436
    363000   1.026881       1.0069281      7.4822916     -2596.84       -4138.7018      1541.8619     -4138.7018     -5434.6506     -299.49692      1595.4457      5690.257
    364000   0.98046795     0.98310854     7.5462036     -2700.0447     -4172.2173      1472.1726     -4172.2173     -5478.5986     -302.27562      1608.6569      5657.8388
    365000   1.0394735      1.0135978      7.4125589     -2589.9608     -4150.7302      1560.7695     -4150.7302     -5417.7326     -302.73505      1569.7374      5619.903
    366000   0.94955219     0.97586826     7.1374801     -2749.2231     -4174.9757      1425.7526     -4174.9757     -5409.7718     -300.52462      1535.3207      5155.9741
    367000   0.97788438     0.99008319     7.4606349     -2693.2466     -4161.5399      1468.2934     -4161.5399     -5457.7735     -301.40592      1597.6395      5569.8643
    368000   1.0509093      1.0357861      7.575967      -2580.9323     -4158.8726      1577.9404     -4158.8726     -5452.6534     -300.99172      1594.7725      5809.916
    369000   0.97067952     0.97201448     7.552693      -2655.8672     -4113.3425      1457.4753     -4113.3425     -5414.8361     -301.8282       1603.3218      5709.2036
    370000   1.0366818      1.0199283      7.5111133     -2600.6923     -4157.2701      1556.5778     -4157.2701     -5433.2261     -300.42631      1576.3823      5718.3265
    371000   0.95008056     0.96667682     6.8559362     -2816.4486     -4242.9946      1426.546      -4242.9946     -5431.1195     -299.93455      1488.0595      4776.9213
    372000   1.0429834      1.0193079      7.5864817     -2619.649      -4185.6885      1566.0396     -4185.6885     -5496.4803     -297.76194      1608.5537      5782.8449
    373000   1.0026107      0.99604683     7.4518025     -2663.4309     -4168.8509      1505.42       -4168.8509     -5454.5748     -299.09896      1584.8228      5589.8976
    374000   0.99100199     0.99044687     7.3262346     -2610.4913     -4098.4808      1487.9895     -4098.4808     -5353.5753     -301.43308      1556.5276      5503.7631
    375000   0.99420721     1.0015502      7.382026      -2655.7031     -4148.5052      1492.8021     -4148.5052     -5431.6978     -300.37034      1583.5629      5520.3436
    376000   0.99969966     0.98479343     7.4750301     -2635.0189     -4136.0679      1501.049      -4136.0679     -5423.2387     -299.76735      1586.9381      5644.0355
    377000   1.0296405      1.0287387      7.4486059     -2629.6339     -4175.6391      1546.0052     -4175.6391     -5463.6582     -296.62532      1584.6444      5620.1541
    378000   1.0206738      1.000638       7.2004206     -2627.2813     -4159.823       1532.5417     -4159.823      -5392.7327     -301.52633      1534.436       5347.6263
    379000   1.0574199      1.0109846      7.6335942     -2601.5085     -4189.2246      1587.7161     -4189.2246     -5505.2793     -301.0237       1617.0784      5853.1654
    380000   0.97611032     1.0073346      7.6631935     -2676.2261     -4141.8558      1465.6296     -4141.8558     -5467.9389     -298.58162      1624.6648      5811.2308
    381000   0.99368508     1.0155881      7.3501262     -2652.3135     -4144.3316      1492.0182     -4144.3316     -5415.9587     -301.12301      1572.7501      5488.4023
    382000   0.97330217     0.98067536     7.6821733     -2687.837      -4149.2502      1461.4132     -4149.2502     -5488.7693     -302.45022      1641.9694      5820.6413
    383000   0.98299735     1.0214998      7.3174671     -2675.4446     -4151.4152      1475.9705     -4151.4152     -5414.2991     -302.80448      1565.6885      5429.0991
    384000   1.0019578      0.99305002     7.5849271     -2637.4187     -4141.8584      1504.4396     -4141.8584     -5444.922      -301.91791      1604.9815      5763.3534
    385000   1.0051399      1.0186033      7.4059815     -2608.0568     -4117.2743      1509.2175     -4117.2743     -5387.7366     -301.91002      1572.3723      5594.5221
    386000   0.98099579     0.99720106     7.4526935     -2634.7152     -4107.6804      1472.9652     -4107.6804     -5381.4935     -301.48865      1575.3017      5619.6
    387000   1.035672       1.0086852      7.477309      -2598.9402     -4154.0018      1555.0616     -4154.0018     -5439.1688     -302.74538      1587.9125      5682.6383
    388000   1.0261656      1.0283477      7.3177803     -2628.5537     -4169.3413      1540.7876     -4169.3413     -5413.6648     -302.59393      1546.9173      5476.337
    389000   0.97684401     1.0028837      7.3305552     -2677.5024     -4144.2337      1466.7313     -4144.2337     -5413.2748     -303.24593      1572.287       5441.5372
    390000   1.0045281      1.0044347      7.534563      -2621.3124     -4129.6113      1508.2989     -4129.6113     -5444.0668     -302.3607       1616.8162      5723.6784
    391000   0.99622065     0.99326185     7.6841959     -2629.9374     -4125.7627      1495.8253     -4125.7627     -5467.8084     -294.88923      1636.9348      5880.781
    392000   0.99711138     1.0038291      7.1311305     -2694.3231     -4191.4859      1497.1627     -4191.4859     -5408.2428     -302.11721      1518.8741      5203.8414
    393000   0.9962953      0.9937617      7.1776998     -2692.8555     -4188.7929      1495.9374     -4188.7929     -5417.8367     -296.87603      1525.9199      5256.8874
    394000   0.9981435      0.97180575     6.8996341     -2728.8068     -4227.5193      1498.7125     -4227.5193     -5414.3238     -303.37252      1490.177       4912.9613
    395000   1.0065982      0.99472651     7.3108096     -2616.9445     -4128.3517      1511.4072     -4128.3517     -5380.1623     -297.57831      1549.3889      5480.2257
    396000   0.98442616     0.96496458     7.4238671     -2662.089      -4140.2049      1478.1159     -4140.2049     -5414.0047     -299.97647      1573.7763      5560.2993
    397000   1.0185452      1.0317982      7.392835      -2608.0964     -4137.442       1529.3456     -4137.442      -5405.0118     -300.61119      1568.181       5579.9219
    398000   0.96550564     0.97716113     7.3410415     -2707.0605     -4156.7672      1449.7067     -4156.7672     -5431.0072     -301.78401      1576.0239      5423.5934
    399000   1.0318758      1.0019264      7.2292034     -2641.3144     -4190.676       1549.3616     -4190.676      -5421.3041     -302.93522      1533.5633      5365.472
    400000   1.0075852      1.0269567      7.2390832     -2649.5625     -4162.4516      1512.8891     -4162.4516     -5393.3805     -300.57165      1531.5006      5368.1664
    401000   0.98774028     1.0107063      7.4451837     -2695.5932     -4178.6853      1483.092      -4178.6853     -5464.0121     -303.75022      1589.0771      5550.4045
    402000   1.0357604      1.0328235      7.5287164     -2551.2368     -4106.431       1555.1942     -4106.431      -5391.4441     -304.17971      1589.1927      5787.2785
    403000   0.97535001     1.005082       7.1385189     -2689.4923     -4153.9803      1464.488      -4153.9803     -5370.9677     -301.05199      1518.0394      5216.8554
    404000   0.95687681     0.9738249      7.5428008     -2727.9907     -4164.7412      1436.7505     -4164.7412     -5479.1335     -299.10336      1613.4957      5626.124
    405000   0.95794499     0.97998267     6.9069014     -2800.293      -4238.6474      1438.3544     -4238.6474     -5428.7395     -301.23357      1491.3257      4849.5241
    406000   1.0194346      1.0030004      6.9280265     -2715.6872     -4246.3682      1530.681      -4246.3682     -5432.9618     -302.00046      1488.5941      4957.5272
    407000   1.0643884      1.056579       7.5101037     -2509.8929     -4108.0721      1598.1791     -4108.0721     -5386.2086     -302.70723      1580.8438      5808.0077
    408000   1.0181327      0.99526126     7.4958381     -2612.8737     -4141.6         1528.7263     -4141.6        -5423.0513     -301.74261      1583.1939      5689.2269
    409000   0.99632592     0.99607106     7.4429978     -2645.288      -4141.2713      1495.9834     -4141.2713     -5439.0341     -296.93502      1594.6978      5598.2888
    410000   1.0134019      0.98957961     7.3936835     -2621.2615     -4142.8845      1521.623      -4142.8845     -5402.0155     -305.26212      1564.3931      5567.6966
    411000   1.0111649      1.0152623      7.518745      -2560.5916     -4078.8557      1518.2642     -4078.8557     -5360.7084     -299.77289      1581.6255      5766.8798
    412000   1.0034089      0.99696841     7.5630502     -2617.6172     -4124.2357      1506.6185     -4124.2357     -5426.1661     -301.4009       1603.3313      5758.9248
    413000   1.0266094      0.99312825     7.5161823     -2603.1682     -4144.6223      1541.454      -4144.6223     -5441.7697     -302.51633      1599.6637      5721.4649
    414000   0.98936668     1.0099681      7.6421991     -2582.7483     -4068.2824      1485.5341     -4068.2824     -5373.4731     -303.01061      1608.2013      5881.4561
    415000   1.0053185      1.0018321      7.5347976     -2615.4305     -4124.9162      1509.4857     -4124.9162     -5424.7396     -300.44519      1600.2685      5729.8201
    416000   0.99226928     1.0079349      7.1066195     -2801.4767     -4291.3691      1489.8923     -4291.3691     -5522.9947     -305.81837      1537.444       5069.5403
    417000   1.0060938      1.0096623      7.4336582     -2676.6014     -4187.2512      1510.6498     -4187.2512     -5464.8534     -299.01559      1576.6178      5556.6311
    418000   1.0117698      1.0125802      7.4827423     -2577.5789     -4096.7512      1519.1723     -4096.7512     -5389.5338     -296.24258      1589.0252      5710.0173
    419000   0.98039509     0.97092271     7.5317959     -2689.4602     -4161.5234      1472.0632     -4161.5234     -5466.6866     -300.12061      1605.2838      5652.4659
    420000   1.0305016      1.0045149      7.556594      -2565.7871     -4113.0853      1547.2981     -4113.0853     -5395.6426     -299.47207      1582.0294      5803.6043
    421000   1.0532314      1.0106581      7.2747044     -2512.7451     -4094.172       1581.4269     -4094.172      -5322.5817     -300.70667      1529.1164      5544.4364
    422000   1.0197278      1.0006984      7.1197119     -2664.5521     -4195.6733      1531.1213     -4195.6733     -5405.5589     -302.89356      1512.7791      5220.9657
    423000   0.99875721     0.98736674     7.501121      -2587.5178     -4087.1518      1499.634      -4087.1518     -5379.5377     -302.63595      1595.0219      5720.434
    424000   0.97282817     0.97838176     7.4009759     -2712.7329     -4173.4344      1460.7015     -4173.4344     -5453.4752     -297.31829      1577.359       5484.3019
    425000   1.0238369      1.0116132      7.6121842     -2601.8035     -4139.0947      1537.2912     -4139.0947     -5446.8178     -304.81084      1612.5339      5829.1576
    426000   1.0128592      1.0025812      7.7481349     -2595.224      -4116.032       1520.8081     -4116.032      -5448.4917     -300.49104      1632.9507      5986.3108
    427000   0.983261       1.0070824      7.3103941     -2693.8101     -4170.1765      1476.3664     -4170.1765     -5435.1162     -299.87316      1564.8129      5402.8999
    428000   0.98450509     0.99919347     7.6719183     -2570.4297     -4048.6641      1478.2344     -4048.6641     -5382.0698     -298.89135      1632.297       5926.6905
    429000   0.97396528     0.98640737     7.3808897     -2660.7012     -4123.11        1462.4089     -4123.11       -5402.5379     -296.71832      1576.1462      5514.087
    430000   0.96948917     0.98257487     7.3977555     -2594.0439     -4049.7319      1455.688      -4049.7319     -5321.7755     -301.79385      1573.8375      5599.4242
    431000   1.0317468      1.0095309      7.253671      -2653.124      -4202.2919      1549.1679     -4202.2919     -5443.013      -298.48087      1539.2019      5380.7617
    432000   0.96568041     0.98907409     7.0126303     -2764.2165     -4214.1857      1449.9691     -4214.1857     -5417.2544     -303.53464      1506.6034      5002.7017
    433000   1.011692       1.0007727      7.6430101     -2635.6532     -4154.7087      1519.0555     -4154.7087     -5471.6989     -297.11137      1614.1015      5829.4495
    434000   1.0202474      1.0174226      7.5815206     -2639.7924     -4171.6939      1531.9015     -4171.6939     -5474.2147     -303.56647      1606.0873      5757.2068
    435000   0.96382773     0.96409591     7.456395      -2675.6577     -4122.845       1447.1873     -4122.845      -5409.9806     -302.23277      1589.3683      5582.7573
    436000   1.010022       1.0122397      7.1228229     -2672.0309     -4188.579       1516.5481     -4188.579      -5418.7813     -300.31751      1530.5198      5216.9324
    437000   1.0246448      1.0437973      7.4035632     -2615.3492     -4153.8534      1538.5042     -4153.8534     -5435.198      -302.40526      1583.7499      5584.5513
    438000   1.0033846      1.0141353      7.6001299     -2592.3331     -4098.9151      1506.582      -4098.9151     -5400.2625     -300.19753      1601.5449      5825.2771
    439000   1.0235416      1.0022956      7.6207483     -2594.5387     -4131.3864      1536.8477     -4131.3864     -5450.1454     -300.15339      1618.9124      5845.9076
    440000   1.0032885      0.98213585     7.2435828     -2696.3093     -4202.747       1506.4377     -4202.747      -5445.3583     -300.42886      1543.0402      5326.4031
    441000   1.0226035      1.0220708      7.3220475     -2682.7174     -4218.1565      1535.4391     -4218.1565     -5476.9478     -302.83587      1561.6271      5426.8994
    442000   1.0309281      1.0090989      7.3874681     -2597.7405     -4145.679       1547.9386     -4145.679      -5418.4275     -303.41488      1576.1634      5584.3337
    443000   0.99160404     0.9960594      7.4939001     -2627.5834     -4116.4769      1488.8935     -4116.4769     -5404.5205     -297.04824      1585.0918      5672.3708
    444000   0.95858209     0.97268051     7.6259058     -2689.2243     -4128.5354      1439.311      -4128.5354     -5444.4298     -303.95901      1619.8535      5756.9343
    445000   0.94300692     0.98901739     6.9699069     -2782.2815     -4198.2064      1415.9249     -4198.2064     -5404.9991     -302.43622      1509.2289      4937.318
    446000   1.0590253      1.0405118      7.7554936     -2485.0399     -4075.1664      1590.1265     -4075.1664     -5402.0189     -296.32462      1623.1771      6104.6451
    447000   0.99803859     1.0113961      7.4038909     -2647.8216     -4146.3766      1498.5549     -4146.3766     -5417.7506     -300.83697      1572.211       5552.4418
    448000   1.0245569      1.0176993      7.3714109     -2672.1638     -4210.536       1538.3722     -4210.536      -5476.7609     -299.17582      1565.4007      5492.1261
    449000   1.0016076      1.0071413      7.729267      -2621.6867     -4125.6005      1503.9138     -4125.6005     -5445.5427     -303.65771      1623.5999      5938.9508
    450000   0.99725856     0.99351107     7.2156913     -2720.6552     -4218.0389      1497.3837     -4218.0389     -5462.5749     -302.07666      1546.6126      5271.1656
    451000   1.0236996      1.0257027      7.5246946     -2624.7663     -4161.8512      1537.0849     -4161.8512     -5458.7306     -304.39457      1601.2739      5709.2946
    452000   0.98775065     0.98817721     7.5594189     -2658.2282     -4141.3358      1483.1076     -4141.3358     -5441.8506     -297.4761       1597.9909      5714.292
    453000   0.97181948     0.99623909     7.1204776     -2750.474      -4209.661       1459.187      -4209.661      -5423.2897     -300.6284       1514.2571      5135.8917
    454000   1.0103407      1.0203047      7.0365917     -2680.4549     -4197.4814      1517.0265     -4197.4814     -5402.8273     -301.40593      1506.7518      5113.0021
    455000   0.96107963     0.96954401     7.467546      -2674.2695     -4117.3306      1443.0611     -4117.3306     -5421.059      -297.5014       1601.2298      5596.4958
    456000   1.0071703      0.99548505     7.4256904     -2652.8541     -4165.1204      1512.2663     -4165.1204     -5434.8618     -299.20218      1568.9436      5571.5536
    457000   0.98421344     1.0018686      7.1952309     -2650.2348     -4128.0312      1477.7965     -4128.0312     -5362.6886     -303.83469      1538.4921      5318.925
    458000   1.0188664      1.0046674      7.4010715     -2615.3205     -4145.1484      1529.8279     -4145.1484     -5410.1381     -300.75376      1565.7435      5581.8203
    459000   1.0107246      1.0110695      7.4739068     -2577.2982     -4094.9012      1517.603      -4094.9012     -5383.8912     -294.0889       1583.079       5700.5121
    460000   0.98230092     0.97909148     7.1772278     -2697.603      -4172.5279      1474.9248     -4172.5279     -5388.9667     -305.71652      1522.1553      5251.6171
    461000   0.94239873     0.97411374     7.7740882     -2745.2476     -4160.2593      1415.0117     -4160.2593     -5527.5671     -303.23443      1670.5422      5865.032
    462000   0.94916709     0.97923063     7.5661327     -2677.5211     -4102.6955      1425.1744     -4102.6955     -5425.1856     -301.55507      1624.0451      5702.4351
    463000   1.0436639      1.0336485      7.7120498     -2609.5108     -4176.5722      1567.0614     -4176.5722     -5523.0639     -297.17193      1643.6637      5932.0576
    464000   0.97805415     0.98519239     7.2564256     -2675.7271     -4144.2754      1468.5483     -4144.2754     -5386.4353     -299.86492      1542.0247      5361.2094
    465000   1.0163738      1.0020536      7.5384687     -2652.9474     -4179.0328      1526.0853     -4179.0328     -5490.1529     -304.49526      1615.6154      5696.3692
    466000   1.0125172      1.0085629      7.2074845     -2676.9743     -4197.2688      1520.2945     -4197.2688     -5443.84       -299.96903      1546.5403      5305.757
    467000   1.020997       1.0056581      7.7520779     -2552.1532     -4085.1801      1533.0269     -4085.1801     -5432.4136     -299.46842      1646.7019      6033.7488
    468000   0.98707114     0.99686188     7.087052      -2708.0539     -4190.1412      1482.0873     -4190.1412     -5402.2974     -298.17577      1510.332       5141.291
    469000   1.0025896      0.99155953     7.784106      -2571.2428     -4076.6311      1505.3883     -4076.6311     -5416.8332     -303.47376      1643.6759      6050.1322
    470000   1.0348275      1.0177919      7.663274      -2518.8961     -4072.6896      1553.7935     -4072.6896     -5392.6853     -296.23404      1616.2298      5968.65
    471000   0.98987865     0.9814162      7.3613945     -2702.9947     -4189.2975      1486.3028     -4189.2975     -5473.8342     -297.16584      1581.7025      5450.2013
    472000   1.0045903      0.98868531     7.4656221     -2634.6699     -4143.0623      1508.3924     -4143.0623     -5425.1388     -298.36623      1580.4427      5633.9646
    473000   1.0369548      1.0018974      7.2178348     -2588.2431     -4145.2307      1556.9876     -4145.2307     -5388.9532     -299.31031      1543.0329      5405.9518
    474000   0.98214841     1.0049562      7.6738669     -2606.3215     -4081.0173      1474.6958     -4081.0173     -5401.1723     -302.21098      1622.3659      5892.9569
    475000   1.0497675      1.0060002      7.2493605     -2611.0712     -4187.2971      1576.2259     -4187.2971     -5426.8592     -299.29035      1538.8525      5418.0404
    476000   1.0152321      0.99952894     7.6461816     -2580.4706     -4104.8416      1524.371      -4104.8416     -5419.9856     -299.84744      1614.9915      5888.1447
    477000   0.96910511     0.97681185     7.1764471     -2700.7644     -4155.8757      1455.1113     -4155.8757     -5390.341      -297.88694      1532.3522      5247.5911
    478000   0.98148747     0.97895521     7.4450167     -2636.06       -4109.7634      1473.7034     -4109.7634     -5396.2674     -298.26049      1584.7645      5609.7528
    479000   0.98982571     0.97506992     7.356954      -2634.2396     -4120.4629      1486.2233     -4120.4629     -5383.3427     -303.49964      1566.3795      5514.0383
    480000   0.96896977     0.98564324     6.9515998     -2670.9569     -4125.865       1454.9081     -4125.865      -5311.7738     -299.0621       1484.9709      5028.3664
    481000   0.9937272      1.0091284      7.4217315     -2687.3703     -4179.4517      1492.0814     -4179.4517     -5455.8853     -300.73532      1577.1688      5532.6526
    482000   0.97782369     0.98851369     7.4408316     -2624.2846     -4092.4869      1468.2023     -4092.4869     -5363.5942     -302.25609      1573.3634      5616.8929
    483000   1.026941       1.0102295      7.5825919     -2630.9707     -4172.9225      1541.9518     -4172.9225     -5479.5027     -301.24737      1607.8276      5767.2151
    484000   1.0312902      1.0285473      7.2431465     -2584.4057     -4132.8879      1548.4823     -4132.8879     -5362.4369     -300.09573      1529.6447      5437.8235
    485000   1.0457905      1.0033634      6.986456      -2692.1116     -4262.366       1570.2544     -4262.366      -5452.0345     -299.79315      1489.4617      5045.8171
    486000   1.0003799      0.99508929     7.4884449     -2645.4309     -4147.5014      1502.0705     -4147.5014     -5436.2202     -300.47917      1589.198       5648.4812
    487000   1.0089349      1.0147863      7.3745253     -2667.5748     -4182.4906      1514.9158     -4182.4906     -5460.734      -299.32114      1577.5645      5500.1644
    488000   1.0329941      1.0140796      7.8396559     -2565.6302     -4116.6708      1551.0406     -4116.6708     -5463.1083     -302.09263      1648.5302      6117.2697
    489000   1.0009293      1.0051484      7.3898134     -2654.1302     -4157.0256      1502.8953     -4157.0256     -5433.0623     -300.4527       1576.4894      5530.5416
    490000   1.0286972      0.99491692     7.2298835     -2649.6418     -4194.2307      1544.5889     -4194.2307     -5421.7309     -304.28707      1531.7872      5357.8977
    491000   0.98371075     0.98637598     7.3650174     -2696.8064     -4173.8481      1477.0417     -4173.8481     -5448.2739     -298.63701      1573.0628      5460.4023
    492000   0.97399179     1.008941       7.1869693     -2771.266      -4233.7147      1462.4487     -4233.7147     -5484.7566     -299.84475      1550.8867      5188.7435
    493000   0.98990513     0.9811857      7.402221      -2657.2332     -4143.5758      1486.3426     -4143.5758     -5427.1583     -296.53859      1580.1211      5541.1807
    494000   1.0101062      1.0129812      7.1252089     -2674.2951     -4190.9696      1516.6745     -4190.9696     -5408.1077     -298.52662      1515.6647      5217.3109
    495000   1.0048306      1.0063504      7.1507856     -2742.564      -4251.3171      1508.7531     -4251.3171     -5479.6571     -303.32448      1531.6645      5177.3698
    496000   1.0022087      0.98802877     7.4713474     -2660.9774     -4165.7938      1504.8164     -4165.7938     -5459.4009     -300.12709      1593.7342      5613.9983
    497000   1.0152627      0.99932535     7.7954735     -2533.9251     -4058.3421      1524.417      -4058.3421     -5393.3478     -303.54255      1638.5482      6100.0401
    498000   1.0720398      1.0518759      7.1574168     -2599.709      -4209.3767      1609.6678     -4209.3767     -5417.523      -303.23958      1511.3859      5327.5693
    499000   1.018038       1.022504       7.3446074     -2685.6006     -4214.1846      1528.5841     -4214.1846     -5486.2217     -301.80861      1573.8457      5449.0027
    500000   0.99244832     0.98985694     7.5254698     -2705.0003     -4195.1615      1490.1612     -4195.1615     -5499.9832     -299.40301      1604.2247      5629.9192
    501000   1.0080619      1.0125729      7.5615975     -2584.4891     -4098.094       1513.6049     -4098.094      -5405.8527     -298.43872      1606.1974      5790.4441
    502000   0.99962303     0.9896015      7.4838803     -2644.9611     -4145.8951      1500.934      -4145.8951     -5433.2419     -296.25174      1583.5986      5643.8955
    503000   1.0314422      1.0134449      7.4443271     -2586.0909     -4134.8014      1548.7105     -4134.8014     -5417.4376     -302.5734       1585.2096      5658.9581
    504000   0.99451029     1.0020343      7.3516086     -2663.281      -4156.5382      1493.2572     -4156.5382     -5424.1744     -292.18529      1559.8215      5479.0766
    505000   1.0030911      1.0178779      7.3057067     -2699.5945     -4205.7358      1506.1413     -4205.7358     -5465.728      -297.81419      1557.8064      5391.9238
    506000   1.0304025      0.99394462     7.4170376     -2598.5337     -4145.6831      1547.1494     -4145.6831     -5416.0121     -304.46279      1574.7918      5616.2905
    507000   0.98260178     0.99087881     7.2917227     -2590.6156     -4065.9922      1475.3766     -4065.9922     -5306.4543     -300.44463      1540.9067      5485.4147
    508000   1.0003231      0.99853526     7.4081441     -2575.6241     -4077.6093      1501.9852     -4077.6093     -5344.5615     -297.72347      1564.6757      5629.35
    509000   1.0031067      0.98547486     7.2361897     -2623.5118     -4129.6765      1506.1647     -4129.6765     -5361.6632     -301.45679      1533.4435      5391.0122
    510000   1.0366599      1.0251564      7.1974299     -2677.1361     -4233.681       1556.5449     -4233.681      -5474.4562     -304.58065      1545.3558      5294.4591
    511000   1.0069294      1.0101232      7.1955263     -2612.6567     -4124.5612      1511.9045     -4124.5612     -5350.5329     -305.41255      1531.3842      5356.8301
    512000   0.97245797     0.98313817     7.3538951     -2731.4852     -4191.6308      1460.1456     -4191.6308     -5456.7652     -301.91058      1567.045       5413.4049
    513000   1.0180199      0.99080641     7.3939441     -2528.8754     -4057.4322      1528.5568     -4057.4322     -5317.4086     -302.10512      1562.0815      5660.3713
    514000   1.0153454      1.0167217      7.5229088     -2582.1668     -4106.7079      1524.5411     -4106.7079     -5398.5346     -298.91808      1590.7448      5749.9163
    515000   1.0397277      1.0523864      7.9128437     -2503.3321     -4064.4832      1561.1511     -4064.4832     -5417.4241     -300.83479      1653.7756      6260.6278
    516000   1.0547362      1.036524       7.4858483     -2470.4846     -4054.1711      1583.6864     -4054.1711     -5333.9057     -301.58978      1581.3244      5820.5517
    517000   1.0071604      1.0127491      7.1893583     -2649.0652     -4161.3166      1512.2514     -4161.3166     -5384.17       -299.79009      1522.6435      5313.5903
    518000   0.99848592     0.98570998     7.5942945     -2644.0489     -4143.2755      1499.2266     -4143.2755     -5460.7931     -300.66965      1618.1872      5767.0982
    519000   1.0366196      1.0055514      7.6829838     -2510.1679     -4066.6523      1556.4843     -4066.6523     -5384.0165     -294.82886      1612.1931      5999.2081
    520000   0.99774637     0.99674381     7.2358456     -2652.8432     -4150.9593      1498.1162     -4150.9593     -5395.6703     -303.55929      1548.2703      5361.2998
    521000   1.0168444      0.98936537     7.4189734     -2685.7058     -4212.4977      1526.7919     -4212.4977     -5475.5606     -304.78063      1567.8436      5531.2624
    522000   0.99626802     0.98500604     7.6598591     -2568.8949     -4064.7914      1495.8964     -4064.7914     -5375.1135     -300.75424      1611.0764      5914.869
    523000   1.0083198      1.0189084      7.3396149     -2631.5764     -4145.5686      1513.9922     -4145.5686     -5407.6518     -297.77224      1559.8555      5497.4975
    524000   0.99312285     1.0041239      7.523906      -2653.0969     -4144.2709      1491.174      -4144.2709     -5448.5706     -302.11831      1606.418       5680.0906
    525000   1.0068728      0.99916194     7.1811651     -2674.0526     -4185.8721      1511.8195     -4185.8721     -5418.3597     -302.08366      1534.5713      5279.5283
    526000   1.0116544      0.99464841     7.5023568     -2621.9959     -4140.9949      1518.999      -4140.9949     -5424.6739     -298.13715      1581.8162      5687.3246
    527000   0.99287727     1.00897        7.6410039     -2687.6698     -4178.475       1490.8052     -4178.475      -5511.2839     -300.95974      1633.7686      5775.2109
    528000   0.93970872     0.9883159      7.3394806     -2773.4649     -4184.4375      1410.9726     -4184.4375     -5465.907      -296.34001      1577.8095      5355.4602
    529000   1.0293093      1.0118311      7.5284039     -2633.7049     -4179.2128      1545.5079     -4179.2128     -5465.181      -301.63647      1587.6047      5704.4643
    530000   0.98823521     0.98835942     7.6131537     -2629.0385     -4112.8737      1483.8352     -4112.8737     -5432.9072     -302.45492      1622.4885      5802.9964
    531000   0.98760409     0.98136938     7.1539163     -2736.7333     -4219.6208      1482.8875     -4219.6208     -5450.4939     -299.36136      1530.2344      5186.668
    532000   1.0375993      1.0097945      7.8715552     -2628.0455     -4186.0009      1557.9554     -4186.0009     -5565.9969     -300.35416      1680.3502      6090.1849
    533000   0.98221286     0.97989043     7.4604815     -2684.4933     -4159.2859      1474.7926     -4159.2859     -5444.8014     -298.86921      1584.3847      5578.4476
    534000   1.0238813      0.99705326     7.3249458     -2669.4045     -4206.7622      1537.3577     -4206.7622     -5472.5712     -299.60169      1565.4107      5443.4224
    535000   1.0113249      1.0228731      7.3827999     -2625.6737     -4144.1781      1518.5043     -4144.1781     -5416.91       -301.32124      1574.0531      5551.2302
    536000   0.96783491     0.98134163     7.1486986     -2711.699      -4164.9031      1453.2041     -4164.9031     -5394.8522     -300.46728      1530.4163      5205.9233
    537000   1.0007129      1.0138454      7.2882712     -2651.891      -4154.4614      1502.5704     -4154.4614     -5395.0364     -299.55194      1540.1269      5420.3165
    538000   0.9832398      0.99410488     7.49647       -2593.6976     -4070.0322      1476.3346     -4070.0322     -5354.5992     -298.1769       1582.7439      5709.1028
    539000   1.0302482      1.0257167      7.1393745     -2633.2389     -4180.1566      1546.9177     -4180.1566     -5394.1056     -296.97202      1510.921       5274.0564
    540000   1.0508057      1.0174193      7.5266132     -2567.5511     -4145.3359      1577.7847     -4145.3359     -5445.0303     -303.67497      1603.3694      5768.6347
    541000   0.97937767     0.98142412     7.2347149     -2693.0051     -4163.5407      1470.5356     -4163.5407     -5403.1778     -301.12629      1540.7634      5319.8856
    542000   0.9914394      1.0178835      7.4338971     -2630.5836     -4119.2299      1488.6463     -4119.2299     -5401.1195     -298.91354      1580.8031      5602.9135
    543000   0.98756799     1.0122194      7.6507213     -2582.0457     -4064.8791      1482.8333     -4064.8791     -5383.1696     -299.19098      1617.4815      5891.5975
    544000   0.98821584     0.98472846     7.571699      -2610.0506     -4093.8567      1483.8061     -4093.8567     -5389.9908     -299.70505      1595.8392      5776.0706
    545000   0.98835878     1.0291149      7.336862      -2641.4312     -4125.4519      1484.0207     -4125.4519     -5387.5135     -303.99888      1566.0605      5484.5936
    546000   0.96676247     0.99347501     7.0904442     -2766.9504     -4218.5442      1451.5938     -4218.5442     -5438.1485     -306.14274      1525.7471      5086.1517
    547000   1.0644695      1.0279894      7.0636682     -2631.6435     -4229.9444      1598.3009     -4229.9444     -5433.4449     -296.19991      1499.7004      5191.8024
    548000   1.0039463      1.0215597      7.5672213     -2631.5521     -4138.9775      1507.4254     -4138.9775     -5449.7283     -302.55679      1613.3076      5749.6098
    549000   1.0169046      0.99895685     7.4260122     -2575.6906     -4102.5729      1526.8823     -4102.5729     -5367.1302     -304.33315      1568.8905      5649.0736
    550000   1.0071593      0.98278451     7.2438962     -2631.5709     -4143.8205      1512.2497     -4143.8205     -5380.1889     -299.3785       1535.7468      5391.4886
    551000   1.0313519      1.0338851      7.3777672     -2571.5389     -4120.1138      1548.5748     -4120.1138     -5389.0462     -297.54211      1566.4745      5599.7909
    552000   1.0072028      0.99173609     7.6247112     -2641.7067     -4154.0218      1512.315      -4154.0218     -5478.4195     -300.15822      1624.556       5803.1287
    553000   0.99963554     1.0132085      7.1111439     -2712.7458     -4213.6986      1500.9528     -4213.6986     -5431.7405     -301.49603      1519.538       5163.2823
    554000   1.0085428      1.0262841      7.5815762     -2652.2596     -4166.5866      1514.327      -4166.5866     -5470.7998     -301.48243      1605.6956      5744.8013
    555000   1.0281359      1.0158723      7.3844573     -2581.3275     -4125.0736      1543.746      -4125.0736     -5379.0017     -299.23405      1553.1622      5597.412
    556000   1.0110371      1.0274298      7.5160897     -2591.874      -4109.9462      1518.0722     -4109.9462     -5413.4649     -299.69337      1603.212       5732.6564
    557000   0.97910686     0.99366368     7.7208788     -2662.9523     -4133.0813      1470.129      -4133.0813     -5479.1462     -302.37133      1648.4363      5888.3947
    558000   1.0468993      1.043154       7.7838299     -2519.1295     -4091.0487      1571.9192     -4091.0487     -5416.2839     -300.46785      1625.703       6101.9397
    559000   1.010628       1.0108171      7.3857088     -2651.4773     -4168.9352      1517.4579     -4168.9352     -5433.8135     -301.30389      1566.1821      5528.6483
    560000   0.99478022     0.9970843      7.5725725     -2690.2548     -4183.9173      1493.6625     -4183.9173     -5494.9004     -295.70151      1606.6846      5696.8339
    561000   0.99899305     0.97803587     7.7700117     -2656.7607     -4156.7488      1499.9881     -4156.7488     -5506.3892     -296.86497      1646.5054      5949.004
    562000   0.98467908     0.99915261     7.3491838     -2673.5729     -4152.0685      1478.4956     -4152.0685     -5412.8489     -300.65381      1561.4342      5466.0991
    563000   1.0113951      1.0060819      7.53448       -2586.6943     -4105.3041      1518.6097     -4105.3041     -5402.6408     -296.88325      1594.22        5758.2046
    564000   0.98711277     0.99034453     7.5275858     -2646.8459     -4128.9958      1482.1498     -4128.9958     -5438.8944     -297.54289      1607.4415      5690.4171
    565000   0.98359026     0.97858979     7.4295906     -2649.779      -4126.6398      1476.8608     -4126.6398     -5417.9138     -302.12873      1593.4028      5578.9484
    566000   1.0191871      1.0204294      7.469869      -2567.0679     -4097.3773      1530.3094     -4097.3773     -5374.4134     -300.452        1577.4881      5706.2703
    567000   0.98189553     0.99674367     7.0982483     -2713.4369     -4187.7531      1474.3161     -4187.7531     -5397.2513     -298.39468      1507.8929      5148.3086
    568000   1.0256435      1.0158174      7.4128838     -2658.2678     -4198.2714      1540.0037     -4198.2714     -5482.293      -295.24287      1579.2644      5551.9558
    569000   1.0392283      1.0139672      7.3263896     -2562.7447     -4123.146       1560.4013     -4123.146      -5383.3689     -298.66982      1558.8927      5551.6813
    570000   1.0119249      1.0096623      7.6045496     -2584.5605     -4103.9657      1519.4052     -4103.9657     -5411.0637     -300.65488      1607.7529      5837.9448
    571000   0.99125474     0.97721451     7.0767296     -2632.7774     -4121.1464      1488.369      -4121.1464     -5318.2259     -302.22295      1499.3024      5205.1347
    572000   0.99903209     1.0191513      7.4760977     -2619.9675     -4120.0142      1500.0467     -4120.0142     -5396.553      -303.276        1579.8148      5660.2693
    573000   0.9463439      0.98147496     7.6411657     -2630.1409     -4051.0762      1420.9354     -4051.0762     -5357.7298     -301.86437      1608.518       5832.9189
    574000   1.0007834      0.99322081     7.2811331     -2607.3241     -4110.0003      1502.6762     -4110.0003     -5359.6181     -300.70855      1550.3263      5456.9776
    575000   0.98605398     0.97146006     7.4380223     -2677.1156     -4157.6757      1480.56       -4157.6757     -5446.2766     -301.32541      1589.9263      5560.9505
    576000   0.9983586      1.0256511      7.0645725     -2673.5128     -4172.5482      1499.0354     -4172.5482     -5375.1329     -300.79897      1503.3837      5150.9347
    577000   1.0173905      1.0006816      7.2947428     -2648.8725     -4176.4843      1527.6118     -4176.4843     -5426.9115     -301.37154      1551.7987      5430.5027
    578000   0.98585226     0.97934158     7.5034697     -2612.9824     -4093.2396      1480.2572     -4093.2396     -5389.4142     -300.54905      1596.7236      5697.5707
    579000   1.0303793      1.0143383      7.5157541     -2587.5642     -4134.6787      1547.1145     -4134.6787     -5436.583      -303.40195      1605.3062      5736.5945
    580000   0.95514598     0.96682182     7.2025059     -2750.4227     -4184.5744      1434.1517     -4184.5744     -5435.4296     -303.29449      1554.1497      5226.7946
    581000   0.98578945     0.9795876      7.4126148     -2754.3249     -4234.4878      1480.1629     -4234.4878     -5532.2296     -302.79368      1600.5355      5455.6008
    582000   1.0161319      0.99815897     7.5220705     -2621.4265     -4147.1486      1525.7221     -4147.1486     -5426.9123     -304.10716      1583.8709      5709.728
    583000   1.009053       1.0252126      7.2240186     -2637.4606     -4152.5537      1515.093      -4152.5537     -5385.5498     -298.05877      1531.0549      5363.5832
    584000   1.0397592      1.0176678      7.3935316     -2585.9337     -4147.1321      1561.1984     -4147.1321     -5410.5706     -300.27589      1563.7144      5602.8562
    585000   0.98352458     1.004913       7.3982774     -2647.4773     -4124.2395      1476.7622     -4124.2395     -5392.3828     -298.60202      1566.7453      5546.5688
    586000   1.0252093      0.98876951     7.4426384     -2611.3816     -4150.7334      1539.3518     -4150.7334     -5433.1529     -299.80563      1582.2252      5631.7971
    587000   1.002326       0.99320019     7.0082404     -2735.9611     -4240.9536      1504.9924     -4240.9536     -5444.2546     -301.55049      1504.8515      5026.0951
    588000   0.98704995     0.99542326     7.232009      -2672.2805     -4154.336       1482.0555     -4154.336      -5394.6522     -300.63994      1540.9562      5337.6132
    589000   0.99909641     0.99862305     7.5437081     -2641.2438     -4141.3871      1500.1433     -4141.3871     -5434.3536     -300.43102      1593.3976      5713.8758
    590000   0.95661585     0.96832948     7.7315983     -2590.863      -4027.2217      1436.3587     -4027.2217     -5361.3733     -298.22463      1632.3762      5972.3564
    591000   1.0100307      0.99188615     7.866096      -2580.0336     -4096.5947      1516.5611     -4096.5947     -5450.3074     -303.54554      1657.2582      6132.1503
    592000   0.98988661     0.9930324      7.2103891     -2730.1328     -4216.4475      1486.3147     -4216.4475     -5457.2468     -300.77683      1541.5761      5255.8156
    593000   0.96888823     0.98228436     7.3588708     -2718.4783     -4173.2639      1454.7857     -4173.2639     -5442.8449     -299.42028      1569.0012      5431.9227
    594000   0.99224629     0.99096909     7.4318526     -2675.7719     -4165.6297      1489.8578     -4165.6297     -5439.9041     -301.60524      1575.8797      5555.4609
    595000   0.96553184     0.97301504     7.2535277     -2738.2529     -4187.999       1449.7461     -4187.999      -5428.7088     -302.42201      1543.1318      5295.474
    596000   0.97777646     1.0077272      7.5108507     -2641.8702     -4110.0015      1468.1314     -4110.0015     -5408.6443     -301.27904      1599.9218      5676.8578
    597000   1.0046961      1.002284       7.1579616     -2688.2198     -4196.771       1508.5512     -4196.771      -5427.1741     -301.73942      1532.1426      5239.6618
    598000   0.97337166     0.9765841      7.363575      -2717.2053     -4178.7229      1461.5175     -4178.7229     -5460.7976     -298.05494      1580.1297      5438.4058
    599000   1.0096913      0.99639429     7.3693107     -2585.8909     -4101.9424      1516.0515     -4101.9424     -5359.3266     -301.36064      1558.7449      5576.0729
    600000   0.95359087     0.96732798     7.6405635     -2644.2165     -4076.0332      1431.8167     -4076.0332     -5400.5351     -298.45766      1622.9595      5818.1763
colvars: Saving collective variables state to "equil.colvars.state".
Loop time of 6077.77 on 1 procs for 500000 steps with 1002 atoms

Performance: 35539.359 tau/day, 82.267 timesteps/s
100.0% CPU use with 1 MPI tasks x 1 OpenMP threads

MPI task timing breakdown:
Section |  min time  |  avg time  |  max time  |%varavg| %total
---------------------------------------------------------------
Pair    | 38.579     | 38.579     | 38.579     |   0.0 |  0.63
Kspace  | 5903.1     | 5903.1     | 5903.1     |   0.0 | 97.13
Neigh   | 0.072817   | 0.072817   | 0.072817   |   0.0 |  0.00
Comm    | 78.725     | 78.725     | 78.725     |   0.0 |  1.30
Output  | 0.070773   | 0.070773   | 0.070773   |   0.0 |  0.00
Modify  | 50.709     | 50.709     | 50.709     |   0.0 |  0.83
Other   |            | 6.464      |            |       |  0.11

Nlocal:           1002 ave        1002 max        1002 min
Histogram: 1 0 0 0 0 0 0 0 0 0
Nghost:           7756 ave        7756 max        7756 min
Histogram: 1 0 0 0 0 0 0 0 0 0
Neighs:              0 ave           0 max           0 min
Histogram: 1 0 0 0 0 0 0 0 0 0

Total # of neighbors = 0
Ave neighs/atom = 0
Neighbor list builds = 47079
Dangerous builds = 0

undump         1
unfix          1
unfix          2
unfix          3

#####################################################
# Production (NVT Sphere with colvars)

reset_timestep 0
fix		         1 all nve/sphere update dipole
fix            2 all langevin 1.0 1.0 1.0 214323 omega yes
fix            3 ions colvars input.prod.colvars output prod

thermo		     1000
thermo_style	 custom step temp c_tempSph press etotal pe ke epair ecoul elong evdwl enthalpy
WARNING: New thermo_style command, previous thermo_modify settings will be lost (../output.cpp:903)
thermo_modify  norm no
dump	       	 1 all custom 10000 dump.dipoleProd id type x y z q mux muy muz

timestep	     0.005
run		         500000

CITE-CITE-CITE-CITE-CITE-CITE-CITE-CITE-CITE-CITE-CITE-CITE-CITE

Your simulation uses code contributions which should be cited:

- Colvars module (Fiorin2013, plus other works listed for specific features)


% Colvars module:
% Colvars-LAMMPS interface:
% Optimal rotation via flexible fitting:
% distance colvar component:
% harmonicWalls colvar bias implementation:

@article{Fiorin2013,
  author = {Fiorin, Giacomo and Klein, Michael L.{} and H\'enin, J\'er\^ome},
  title = {Using collective variables to drive molecular dynamics simulations},
  journal = {Mol. Phys.},
  year = {2013},
  volume = {111},
  number = {22-23},
  pages = {3345--3362},
  publisher = {Taylor & Francis},
  doi = {10.1080/00268976.2013.813594},
  url = {https://doi.org/10.1080/00268976.2013.813594}
}


% ABF colvar bias implementation:
% Internal-forces free energy estimator:

@article{Henin2010,
  author = {H\'enin, J\'er\^ome and Fiorin, Giacomo and Chipot, Christophe and Klein, Michael L.},
  title = {Exploring multidimensional free energy landscapes using time-dependent biases on collective variables},
  journal = {J. Chem. Theory Comput.},
  year = {2010},
  volume = {6},
  pages = {35-47},
  number = {1},
  doi = {10.1021/ct9004432},
  pmid = {26614317},
  url = {https://doi.org/10.1021/ct9004432}
}


% LAMMPS engine:

@article{Plimpton1995,
  title = {Fast parallel algorithms for short-range molecular dynamics},
  author = {Plimpton, Steve},
  journal = {J. Comp. Phys.},
  year = {1995},
  volume = {117},
  number = {1},
  pages = {1--19},
  doi = {10.1006/jcph.1995.1039},
  url = {https://doi.org/10.1006/jcph.1995.1039}
}

CITE-CITE-CITE-CITE-CITE-CITE-CITE-CITE-CITE-CITE-CITE-CITE-CITE

EwaldDisp initialization ...
Generated 3 of 3 mixed pair_coeff terms from geometric mixing rule
  G vector = 0.55961375,   accuracy = 0.0001
Generated 3 of 3 mixed pair_coeff terms from geometric mixing rule
colvars: Creating proxy instance
colvars: ----------------------------------------------------------------------
colvars: Initializing the collective variables module, version 2022-05-24.
colvars: Please cite Fiorin et al, Mol Phys 2013:
colvars:   https://doi.org/10.1080/00268976.2013.813594
colvars: as well as all other papers listed below for individual features used.
colvars: This version was built with the C++11 standard or higher.
colvars: Using LAMMPS interface, version "2022-05-09".
colvars: ----------------------------------------------------------------------
colvars: Reading new configuration from file "input.prod.colvars":
colvars: # units = "" [default]
colvars: # indexFile = "groups.ndx"
colvars: The following index groups are currently defined:
colvars:   cation (1 atoms)
colvars:   anion (1 atoms)
colvars: # smp = on [default]
colvars: # colvarsTrajFrequency = 500
colvars: # colvarsRestartFrequency = 0 [default]
colvars: # scriptedColvarForces = off [default]
colvars: # scriptingAfterBiases = off [default]
colvars: ----------------------------------------------------------------------
colvars:   Initializing a new collective variable.
colvars:   # name = "dist"
colvars:   Initializing a new "distance" component.
colvars:     # name = "" [default]
colvars:     # componentCoeff = 1 [default]
colvars:     # componentExp = 1 [default]
colvars:     # period = 0 [default]
colvars:     # wrapAround = 0 [default]
colvars:     # forceNoPBC = off [default]
colvars:     # scalable = on [default]
colvars:       Initializing atom group "group1".
colvars:       # name = "" [default]
colvars:       # centerToOrigin = off [default]
colvars:       # centerToReference = off [default]
colvars:       # rotateToReference = off [default]
colvars:       # atomsOfGroup = "" [default]
colvars:       # indexGroup = "cation"
colvars:       # psfSegID =  [default]
colvars:       # atomsFile = "" [default]
colvars:       # dummyAtom = ( 0 , 0 , 0 ) [default]
colvars:       # enableFitGradients = on [default]
colvars:       # printAtomIDs = off [default]
colvars:       Atom group "group1" defined with 1 atoms requested.
colvars:       Initializing atom group "group2".
colvars:       # name = "" [default]
colvars:       # centerToOrigin = off [default]
colvars:       # centerToReference = off [default]
colvars:       # rotateToReference = off [default]
colvars:       # atomsOfGroup = "" [default]
colvars:       # indexGroup = "anion"
colvars:       # psfSegID =  [default]
colvars:       # atomsFile = "" [default]
colvars:       # dummyAtom = ( 0 , 0 , 0 ) [default]
colvars:       # enableFitGradients = on [default]
colvars:       # printAtomIDs = off [default]
colvars:       Atom group "group2" defined with 1 atoms requested.
colvars:     # oneSiteSystemForce = off [default]
colvars:     # oneSiteTotalForce = off [default]
colvars:   All components initialized.
colvars:   # timeStepFactor = 1 [default]
colvars:   # width = 0.01
colvars:   # lowerBoundary = 0.75
colvars:   # upperBoundary = 2
colvars:   # hardLowerBoundary = off [default]
colvars:   # hardUpperBoundary = off [default]
colvars:   # expandBoundaries = off [default]
colvars:   # extendedLagrangian = off [default]
colvars:   # outputValue = on [default]
colvars:   # outputVelocity = off [default]
colvars:   # outputTotalForce = off [default]
colvars:   # outputAppliedForce = off [default]
colvars:   # subtractAppliedForce = off [default]
colvars:   # runAve = off [default]
colvars:   # corrFunc = off [default]
colvars: ----------------------------------------------------------------------
colvars: Collective variables initialized, 1 in total.
colvars: ----------------------------------------------------------------------
colvars:   Initializing a new "abf" instance.
colvars:   # name = "abf_dist"
colvars:   # colvars = { dist }
colvars:   # stepZeroData = off [default]
colvars:   # outputEnergy = on
colvars:   # outputFreq = 1000
colvars:   # timeStepFactor = 1 [default]
colvars:   WARNING: ABF should not be run without a thermostat or at 0 Kelvin!
colvars:   # applyBias = on [default]
colvars:   # updateBias = on [default]
colvars:   # hideJacobian = off [default]
colvars:   Jacobian (geometric) forces will be included in reported free energy gradients.
colvars:   # fullSamples = 1000
colvars:   # inputPrefix = { equil }
colvars:   # historyFreq = 1000000
colvars:   # shared = off [default]
colvars:   # maxForce =  [default]
colvars:   # integrate = on [default]
colvars:   Reading sample count from equil.count and gradient from equil.grad
colvars:   Finished ABF setup.
colvars: ----------------------------------------------------------------------
colvars:   Initializing a new "harmonicwalls" instance.
colvars:   # name = "wall_dist"
colvars:   # colvars = { dist }
colvars:   # stepZeroData = off [default]
colvars:   # outputEnergy = off [default]
colvars:   # outputFreq = 0 [default]
colvars:   # timeStepFactor = 1 [default]
colvars:   # writeTISamples = off [default]
colvars:   # writeTIPMF = off [default]
colvars:   # forceConstant = 1 [default]
colvars:   # targetForceConstant = -1 [default]
colvars:   # lowerWalls = { 0.7 }
colvars:   # upperWalls = { 2.05 }
colvars:   # lowerWallConstant = 1
colvars:   # upperWallConstant = 1
colvars:   The lower wall force constant for colvar "dist" will be rescaled to 10000 according to the specified width (0.01).
colvars:   The upper wall force constant for colvar "dist" will be rescaled to 10000 according to the specified width (0.01).
colvars: ----------------------------------------------------------------------
colvars: Collective variables biases initialized, 2 in total.
colvars: ----------------------------------------------------------------------
colvars: Collective variables module (re)initialized.
colvars: ----------------------------------------------------------------------
colvars: The restart output state file will be "rest.colvars.state".
colvars: The final output state file will be "prod.colvars.state".
colvars: Opening trajectory file "prod.colvars.traj".
colvars: Re-initialized atom group for variable "dist":0/0. 1 atoms: total mass = 1, total charge = 13.626.
colvars: Re-initialized atom group for variable "dist":0/1. 1 atoms: total mass = 1, total charge = -13.626.
colvars:   Prepared sample and gradient buffers at step 0.
Per MPI rank memory allocation (min/avg/max) = 18.22 | 18.22 | 18.22 Mbytes
   Step          Temp        c_tempSph        Press          TotEng         PotEng         KinEng         E_pair         E_coul         E_long         E_vdwl        Enthalpy
         0   0.95359087     0.96732798     7.6405635     -2644.2165     -4076.0332      1431.8167     -4076.0332     -5400.5351     -298.45766      1622.9595      5818.1763
      1000   1.0016291      1.0012765      7.4691136     -2676.0056     -4179.9517      1503.9461     -4179.9517     -5471.6643     -304.18172      1595.8943      5596.4961
      2000   1.0102507      1.0056185      7.6987791     -2559.778      -4076.6695      1516.8914     -4076.6695     -5415.842      -301.86493      1641.0375      5967.0922
      3000   0.98002827     0.99854672     7.6755718     -2609.6945     -4081.2069      1471.5125     -4081.2069     -5422.9        -297.85988      1639.5529      5891.4723
      4000   1.0548803      1.0280358      6.969492      -2615.803      -4199.7058      1583.9028     -4199.7058     -5371.1111     -300.47116      1471.8765      5103.337
      5000   0.98827895     0.99978915     7.3287709     -2697.4539     -4181.3547      1483.9008     -4181.3547     -5452.8066     -299.34981      1570.8017      5419.6096
      6000   1.0136551      0.99698369     7.3066588     -2652.031      -4174.0341      1522.0031     -4174.0341     -5430.5421     -298.22193      1554.7299      5440.5419
      7000   1.0096255      1.0019118      7.60767       -2616.6577     -4132.6103      1515.9526     -4132.6103     -5446.2832     -302.98013      1616.653       5809.3036
      8000   0.99639624     0.99372038     7.5766906     -2622.4008     -4118.4897      1496.0889     -4118.4897     -5428.1402     -298.52054      1608.171       5769.249
      9000   0.94989719     0.9737853      7.0558129     -2804.4193     -4230.6899      1426.2706     -4230.6899     -5450.8666     -304.03562      1524.2123      5010.3264
     10000   1.0189336      1.0097327      7.4626055     -2565.1726     -4095.1014      1529.9287     -4095.1014     -5361.2719     -303.83254      1570.003       5700.1209
     11000   1.0383333      1.0413199      7.420744      -2589.393      -4148.4505      1559.0575     -4148.4505     -5402.2035     -303.24652      1556.9996      5629.5363
     12000   0.96848407     0.9695576      7.0640553     -2768.6415     -4222.8203      1454.1788     -4222.8203     -5445.3184     -302.17347      1524.6716      5055.2332
     13000   1.0174386      1.0164977      7.4999071     -2616.2127     -4143.8967      1527.684      -4143.8967     -5441.2173     -298.12923      1595.4498      5690.3945
     14000   0.98031226     1.0061662      7.3090936     -2668.4982     -4140.4371      1471.9389     -4140.4371     -5398.5023     -299.78947      1557.8547      5426.7714
     15000   0.95837523     0.98880677     7.4910809     -2685.6982     -4124.6986      1439.0004     -4124.6986     -5423.4138     -299.81333      1598.5286      5611.1336
     16000   1.0000406      1.0023856      7.4975647     -2658.445      -4160.006       1501.561      -4160.006      -5453.1559     -300.08633      1593.2363      5645.5679
     17000   1.0670171      1.0339238      7.5995851     -2494.9482     -4097.0744      1602.1262     -4097.0744     -5397.7443     -298.69998      1599.3699      5922.0585
     18000   1.0253945      0.98802742     7.7976265     -2462.8836     -4002.5135      1539.6299     -4002.5135     -5331.9393     -296.43203      1625.8578      6173.4662
     19000   1.0159498      1.0358707      7.2817456     -2594.977      -4120.4257      1525.4486     -4120.4257     -5360.0651     -299.97846      1539.6179      5470.003
     20000   1.0447802      1.0386243      7.0403348     -2611.7896     -4180.527       1568.7374     -4180.527      -5378.7315     -300.75101      1498.9555      5185.8132
     21000   0.99535463     0.99775952     7.4077649     -2637.8765     -4132.4015      1494.525      -4132.4015     -5397.7169     -300.23475      1565.5501      5566.6776
     22000   1.0065113      1.0159936      7.362473      -2632.3413     -4143.618       1511.2767     -4143.618      -5411.2679     -298.84777      1566.4977      5522.0492
     23000   1.0108642      1.0225079      7.3518765     -2683.2159     -4201.0285      1517.8126     -4201.0285     -5461.1115     -302.62882      1562.7119      5459.4384
     24000   0.98896614     1.0035995      7.7940229     -2621.3804     -4106.313       1484.9327     -4106.313      -5455.0672     -300.25871      1649.0129      6010.9781
     25000   1.0381595      1.0286969      7.5840839     -2490.6041     -4049.4005      1558.7964     -4049.4005     -5335.7825     -301.0451       1587.427       5909.2342
     26000   1.0362678      1.0209098      7.8613461     -2532.2584     -4088.2145      1555.9561     -4088.2145     -5443.9926     -300.98392      1656.7621      6174.6648
     27000   1.027279       1.0013541      7.9142475     -2533.7408     -4076.2003      1542.4595     -4076.2003     -5457.1062     -296.37377      1677.2797      6231.7739
     28000   1.0651346      1.0179461      7.6290039     -2604.4286     -4203.7282      1599.2996     -4203.7282     -5524.7473     -301.577        1622.5961      5845.1613
     29000   1.0173338      1.0091969      7.4350407     -2616.535      -4144.0616      1527.5267     -4144.0616     -5430.4287     -301.06056      1587.4276      5618.2288
     30000   1.0008952      0.97925385     7.5258663     -2580.3192     -4083.1633      1502.8441     -4083.1633     -5366.7839     -299.85784      1583.4785      5755.0395
     31000   0.99682249     0.9841321      7.6385036     -2619.3472     -4116.0761      1496.729      -4116.0761     -5429.4123     -299.07265      1612.4088      5840.7642
     32000   0.98334686     1.030038       7.753377      -2655.9972     -4132.4925      1476.4953     -4132.4925     -5474.9184     -301.47407      1643.8999      5931.3435
     33000   0.97932214     1.00259        7.4033696     -2626.1051     -4096.5573      1470.4522     -4096.5573     -5362.5021     -299.03478      1564.9796      5573.581
     34000   0.99306197     0.99941426     7.7814456     -2643.277      -4134.3596      1491.0825     -4134.3596     -5471.8288     -303.5794       1641.0486      5975.1514
     35000   1.0165806      1.0042037      7.4959721     -2599.6518     -4126.0476      1526.3958     -4126.0476     -5401.6139     -303.2146       1578.7809      5702.5972
     36000   1.0371779      1.0137915      7.4710783     -2659.5609     -4216.8835      1557.3226     -4216.8835     -5509.9785     -303.03742      1596.1325      5615.1168
     37000   1.0257719      1.026683       7.2135762     -2584.5482     -4124.7447      1540.1965     -4124.7447     -5349.51       -300.84712      1525.6124      5404.93
     38000   1.0017503      1.0052812      7.2700861     -2683.952      -4188.0801      1504.1281     -4188.0801     -5436.5246     -296.38942      1544.834       5368.1144
     39000   1.006697       1.0131373      7.4654688     -2694.6116     -4206.1672      1511.5556     -4206.1672     -5488.052      -303.13996      1585.0248      5573.8532
     40000   0.96545295     0.9743486      6.9707118     -2765.1733     -4214.8009      1449.6276     -4214.8009     -5408.951      -300.90125      1495.0513      4955.3176
     41000   0.96723867     0.98034665     7.2607999     -2742.8699     -4195.1788      1452.3089     -4195.1788     -5440.0701     -299.74649      1544.6378      5298.9115
     42000   0.97206934     0.97107175     7.6955854     -2669.0272     -4128.5893      1459.5621     -4128.5893     -5465.8382     -303.23383      1640.4827      5854.3057
     43000   0.94433542     0.96976815     7.6081277     -2691.9249     -4109.8446      1417.9196     -4109.8446     -5426.6266     -302.67733      1619.4594      5734.5433
     44000   1.0201876      1.0299475      7.7076436     -2602.4708     -4134.2825      1531.8116     -4134.2825     -5470.9464     -297.90718      1634.5711      5934.2174
     45000   1.0184264      1.0298843      7.4789739     -2665.6635     -4194.8307      1529.1672     -4194.8307     -5490.8625     -303.47051      1599.5024      5617.759
     46000   0.98964378     0.99807464     7.5411552     -2670.5411     -4156.4913      1485.9501     -4156.4913     -5467.8278     -299.71489      1611.0515      5681.7509
     47000   1.0218048      1.0003294      7.4705549     -2584.0392     -4118.2791      1534.2399     -4118.2791     -5391.6886     -304.14784      1577.5574      5690.0587
     48000   1.008502       1.0148994      7.2900153     -2688.8186     -4203.0844      1514.2658     -4203.0844     -5464.9062     -301.52917      1563.3509      5385.3206
     49000   1.0279707      0.99851476     7.00944       -2604.7086     -4148.2066      1543.498      -4148.2066     -5318.8317     -295.99678      1466.6218      5158.6762
     50000   1.013804       1.0225713      7.1232067     -2718.3836     -4240.6102      1522.2266     -4240.6102     -5475.3981     -295.25464      1530.0425      5171.0048
     51000   1.0185914      1.0132325      7.033611      -2696.1504     -4225.5655      1529.415      -4225.5655     -5429.0758     -301.53392      1505.0442      5094.0053
     52000   0.95673219     0.98129812     7.1307227     -2792.9636     -4229.497       1436.5334     -4229.497      -5464.4283     -300.19099      1535.1223      5104.7492
     53000   1.0253982      1.0096365      7.5909664     -2671.993      -4211.6284      1539.6354     -4211.6284     -5522.4484     -306.60321      1617.4233      5735.468
     54000   0.98925412     0.98886838     7.3328995     -2673.6538     -4159.0188      1485.3651     -4159.0188     -5439.0369     -298.47699      1578.495       5447.9823
     55000   0.98752264     0.99470552     7.3941743     -2655.7173     -4138.4825      1482.7652     -4138.4825     -5392.0404     -297.88478      1551.4426      5533.7844
     56000   0.99921811     0.98020409     7.167438      -2629.0618     -4129.3878      1500.326      -4129.3878     -5349.2057     -300.27739      1520.0953      5309.3155
     57000   0.99678063     0.98865117     7.5670077     -2561.2936     -4057.9597      1496.6661     -4057.9597     -5367.4194     -300.54206      1610.0018      5819.6317
     58000   1.0087291      1.0177435      7.5190771     -2603.3977     -4118.0044      1514.6067     -4118.0044     -5408.8197     -299.55645      1590.3717      5724.4415
     59000   1.0066898      0.99747199     7.6546421     -2535.0715     -4046.6162      1511.5447     -4046.6162     -5348.8028     -301.35556      1603.5421      5942.9143
     60000   1.0295264      1.0495977      7.1052224     -2636.0505     -4181.8844      1545.8338     -4181.8844     -5398.4156     -303.27238      1519.8037      5233.4193
     61000   1.0339759      1.0050157      7.6418186     -2522.4738     -4074.9885      1552.5148     -4074.9885     -5371.0771     -299.5915       1595.6801      5941.3092
     62000   1.0093658      1.0098911      7.2843928     -2629.3945     -4144.9572      1515.5627     -4144.9572     -5400.0087     -298.22103      1553.2725      5438.5175
     63000   0.99283055     0.96563524     7.5238842     -2695.3175     -4186.0526      1490.7351     -4186.0526     -5496.0978     -299.27858      1609.3237      5637.8459
     64000   0.98973334     1.0001447      7.4095064     -2695.059      -4181.1436      1486.0846     -4181.1436     -5455.7256     -296.45079      1571.0328      5511.424
     65000   0.96223116     0.96927455     6.9125605     -2760.0874     -4204.8775      1444.7901     -4204.8775     -5393.3254     -298.03042      1486.4783      4895.9975
     66000   0.99015516     0.9901585      7.1274124     -2645.0751     -4131.7931      1486.718      -4131.7931     -5337.785      -298.82151      1504.8134      5248.9714
     67000   0.9985886      0.97805431     7.2120702     -2710.9078     -4210.2886      1499.3808     -4210.2886     -5450.8189     -297.82931      1538.3596      5276.9024
     68000   0.96514212     0.98777763     7.2015959     -2688.8821     -4138.043       1449.1609     -4138.043      -5371.0949     -303.61036      1536.6622      5287.3272
     69000   0.98095535     1.0030225      6.693123      -2786.1334     -4259.0379      1472.9045     -4259.0379     -5400.6474     -304.42223      1446.0317      4626.911
     70000   0.97690982     0.99821077     7.3821737     -2677.1895     -4144.0196      1466.8301     -4144.0196     -5404.7664     -302.75938      1563.5061      5499.0207
     71000   1.0231314      1.0038659      7.4165771     -2588.0941     -4124.3258      1536.2318     -4124.3258     -5396.8331     -299.29368      1571.8009      5626.2201
     72000   0.96313262     0.96041891     7.3083841     -2715.0553     -4161.1989      1446.1436     -4161.1989     -5415.3051     -299.02691      1553.1331      5379.4285
     73000   0.99141646     1.0101205      7.2635506     -2643.5126     -4132.1244      1488.6118     -4132.1244     -5359.1977     -298.5762       1525.6495      5401.3153
     74000   0.99834948     0.9701493      7.17825       -2666.9413     -4165.9631      1499.0217     -4165.9631     -5394.6904     -300.62385      1529.3511      5283.4109
     75000   1.016052       1.0036055      7.4021459     -2612.9192     -4138.5212      1525.602      -4138.5212     -5410.2779     -296.42434      1568.1811      5585.4116
     76000   1.0211406      1.0163499      7.2046354     -2612.5411     -4145.7837      1533.2427     -4145.7837     -5360.9746     -298.71377      1513.9047      5367.0347
     77000   0.97615261     0.97560508     7.3310707     -2713.1272     -4178.8204      1465.6931     -4178.8204     -5447.5193     -302.82228      1571.5212      5406.4834
     78000   1.0321872      1.0120985      7.5634899     -2566.8659     -4116.695       1549.8291     -4116.695      -5419.9001     -301.31881      1604.5239      5810.1632
     79000   1.0188143      1.0165781      7.2696888     -2615.8146     -4145.5642      1529.7496     -4145.5642     -5381.5801     -300.5217       1536.5376      5435.8117
     80000   0.993773       0.99763664     7.3028144     -2705.1845     -4197.3347      1492.1502     -4197.3347     -5465.2694     -296.15128      1564.086       5383.1305
     81000   1.0172751      1.0009289      7.8196441     -2566.862      -4094.3006      1527.4386     -4094.3006     -5454.4451     -298.20297      1658.3475      6093.8737
     82000   1.0199254      0.9977134      7.2567453     -2699.8262     -4231.2442      1531.418      -4231.2442     -5482.4448     -302.23619      1553.4368      5337.4645
     83000   1.0064634      0.97726544     7.3798911     -2649.1242     -4160.329       1511.2048     -4160.329      -5438.2899     -301.31389      1579.2748      5524.558
     84000   1.0128297      0.97815481     7.5193595     -2614.0965     -4134.8603      1520.7638     -4134.8603     -5430.7535     -301.86796      1597.7612      5714.0555
     85000   1.0311864      0.99819262     7.2237774     -2623.1045     -4171.4309      1548.3264     -4171.4309     -5401.2093     -299.6029       1529.3813      5377.6722
     86000   1.016609       0.99984608     7.186439      -2651.6723     -4178.1107      1526.4384     -4178.1107     -5404.5351     -301.50534      1527.9298      5307.7499
     87000   0.98823626     1.0012221      7.5272258     -2632.1965     -4116.0333      1483.8367     -4116.0333     -5414.5339     -300.78244      1599.2831      5704.6678
     88000   1.0212588      1.0089013      7.3307075     -2646.9857     -4180.4057      1533.42       -4180.4057     -5447.9406     -302.98888      1570.5238      5472.2226
     89000   0.97410297     1.0014058      7.3829464     -2701.0503     -4163.6659      1462.6156     -4163.6659     -5437.2929     -300.6644       1574.2913      5476.0158
     90000   1.0354407      1.0119838      7.2671482     -2574.5553     -4129.2696      1554.7143     -4129.2696     -5369.1732     -296.94623      1536.8498      5474.2572
     91000   0.99006281     0.98213692     7.6034931     -2667.7061     -4154.2854      1486.5793     -4154.2854     -5465.5769     -299.01966      1610.3112      5753.629
     92000   0.9642426      0.99240095     7.3976141     -2738.6465     -4186.4568      1447.8103     -4186.4568     -5472.2586     -304.9302       1590.732       5454.665
     93000   0.99875414     0.98683314     7.2247576     -2637.4237     -4137.053       1499.6293     -4137.053      -5368.9512     -302.98407      1534.8823      5364.4386
     94000   0.99758389     0.98558662     7.7205009     -2605.0476     -4102.9198      1497.8722     -4102.9198     -5434.9214     -299.76048      1631.7621      5945.8809
     95000   1.0492141      1.0289486      7.6874815     -2543.4973     -4118.8922      1575.3949     -4118.8922     -5447.4346     -297.61812      1626.1605      5970.8602
     96000   1.0952739      1.0387465      7.4282608     -2480.3636     -4124.9173      1644.5537     -4124.9173     -5371.8252     -297.70481      1544.6127      5746.8909
     97000   0.99749364     0.97052468     7.2048873     -2719.5291     -4217.2658      1497.7367     -4217.2658     -5464.359      -300.9704       1548.0636      5260.3257
     98000   1.0055277      0.99511523     7.6856976     -2604.4181     -4114.2179      1509.7998     -4114.2179     -5447.7236     -298.18148      1631.6872      5907.9635
     99000   1.0106757      1.0247277      7.9658387     -2517.0096     -4034.5391      1517.5295     -4034.5391     -5409.3745     -297.97158      1672.807       6305.6455
    100000   0.94509492     0.96175175     7.4271753     -2729.9819     -4149.0419      1419.06       -4149.0419     -5445.1299     -300.53072      1596.6187      5496.0705
    101000   0.97932973     1.0015433      7.3742972     -2672.6643     -4143.1279      1470.4636     -4143.1279     -5411.8563     -297.92924      1566.6577      5494.8223
    102000   1.0127366      0.99080598     7.5123645     -2611.2082     -4131.8322      1520.624      -4131.8322     -5428.9502     -295.41952      1592.5375      5709.1964
    103000   1.023827       1.011787       7.4831602     -2547.3179     -4084.5941      1537.2762     -4084.5941     -5369.2502     -300.2404       1584.8966      5740.7412
    104000   0.9688389      0.9685263      7.3370629     -2740.237      -4194.9486      1454.7116     -4194.9486     -5474.4326     -297.65412      1577.1381      5386.0104
    105000   0.96494274     0.99111877     7.564757      -2683.8785     -4132.74        1448.8615     -4132.74       -5443.0783     -297.61306      1607.9514      5694.554
    106000   0.97720627     0.99596638     7.0377713     -2685.215      -4152.4903      1467.2752     -4152.4903     -5350.4688     -301.46325      1499.4418      5109.5485
    107000   1.0212356      1.0289382      7.3974282     -2623.4897     -4156.875       1533.3853     -4156.875      -5428.4537     -299.52089      1571.0996      5569.6159
    108000   1.0320584      1.0148122      7.4354678     -2615.7338     -4165.3696      1549.6358     -4165.3696     -5446.3614     -297.82477      1578.8166      5619.503
    109000   1.0176955      1.005138       7.6474094     -2553.1627     -4081.2325      1528.0698     -4081.2325     -5394.4208     -298.29926      1611.4875      5916.8124
    110000   0.993881       1.0148103      7.1387094     -2670.6385     -4162.9508      1492.3123     -4162.9508     -5385.2547     -301.00841      1523.3123      5235.9201
    111000   1.0353189      1.0488887      7.1956389     -2693.8424     -4248.3738      1554.5313     -4248.3738     -5492.7678     -303.69181      1548.0858      5275.7692
    112000   1.0256017      1.0080593      7.3916807     -2610.484      -4150.4249      1539.9409     -4150.4249     -5417.0047     -298.16245      1564.7423      5576.2559
    113000   0.99701592     0.9928945      7.3259733     -2700.2459     -4197.2653      1497.0194     -4197.2653     -5484.3907     -299.34912      1586.4745      5413.719
    114000   0.97223245     0.97878922     7.5571622     -2685.5661     -4145.3731      1459.807      -4145.3731     -5458.5896     -305.14683      1618.3633      5684.4548
    115000   1.0377891      1.0210231      7.2661846     -2641.4121     -4199.6525      1558.2404     -4199.6525     -5435.3958     -299.92076      1535.6641      5406.3332
    116000   0.97966264     0.98589938     7.2525532     -2758.8561     -4229.8196      1470.9634     -4229.8196     -5490.7375     -294.87637      1555.7943      5273.7915
    117000   0.99484662     1.0030948      7.2568597     -2643.511      -4137.2732      1493.7622     -4137.2732     -5371.3063     -302.78261      1536.8158      5393.9064
    118000   1.0204164      0.98870973     7.2495621     -2607.7828     -4139.938       1532.1552     -4139.938      -5374.4107     -300.63759      1535.1103      5421.5521
    119000   0.9988564      0.99503283     7.399879      -2628.8774     -4128.6603      1499.7829     -4128.6603     -5402.3739     -303.88354      1577.5971      5566.9426
    120000   0.96028642     0.98275292     7.3763172     -2723.3979     -4165.268       1441.8701     -4165.268      -5433.1467     -300.59927      1568.478       5446.3259
    121000   0.98091488     1.0036471      7.5095745     -2628.0758     -4100.9195      1472.8437     -4100.9195     -5390.4351     -301.24526      1590.7609      5689.2388
    122000   1.031326       1.0137641      7.462773      -2617.137      -4165.673       1548.536      -4165.673      -5449.4901     -301.0319       1584.849       5648.3419
    123000   0.98997357     0.98372208     7.1768867     -2703.7065     -4190.1518      1486.4453     -4190.1518     -5426.8581     -302.04624      1538.7525      5245.1359
    124000   1.0180903      0.99106328     7.4021724     -2660.0686     -4188.7313      1528.6626     -4188.7313     -5466.9287     -300.53186      1578.7293      5538.2915
    125000   0.94867362     0.97398435     7.5884384     -2693.9446     -4118.3781      1424.4334     -4118.3781     -5435.9144     -298.14468      1615.681       5710.7164
    126000   0.98472676     0.96628059     7.228968      -2679.4086     -4157.9759      1478.5672     -4157.9759     -5411.9509     -299.21636      1553.1914      5327.117
    127000   1.006805       1.0107126      7.0277171     -2658.8593     -4170.577       1511.7177     -4170.577      -5375.723      -299.15236      1504.2984      5124.7685
    128000   0.99398905     1.0051404      7.4738619     -2589.5986     -4082.0732      1492.4746     -4082.0732     -5365.7233     -296.63549      1580.2856      5688.162
    129000   1.0098009      0.99162106     7.0847718     -2710.5256     -4226.7416      1516.2161     -4226.7416     -5447.9911     -300.2758       1521.5252      5136.2939
    130000   1.0075223      0.99032889     7.4582039     -2632.0272     -4144.8219      1512.7947     -4144.8219     -5431.7447     -300.83827      1587.761       5628.3912
    131000   1.0576741      1.0251066      7.7079216     -2480.1233     -4068.2209      1588.0976     -4068.2209     -5379.0037     -303.68253      1614.4653      6056.8729
    132000   0.97626128     0.9862787      7.6030536     -2722.4371     -4188.2934      1465.8563     -4188.2934     -5517.836      -301.51378      1631.0564      5698.4113
    133000   1.0355825      1.0183482      7.4026232     -2614.8626     -4169.7897      1554.9271     -4169.7897     -5445.1728     -300.37599      1575.7591      5583.9967
    134000   0.95718081     0.95925519     7.6581265     -2634.0865     -4071.2935      1437.207      -4071.2935     -5392.9274     -302.41878      1624.0526      5847.7585
    135000   1.000208       1.0069003      7.3582256     -2626.5905     -4128.4028      1501.8122     -4128.4028     -5383.2558     -302.81195      1557.665       5523.0958
    136000   1.0463653      1.0267397      7.7105408     -2547.9276     -4119.045       1571.1175     -4119.045      -5446.907      -300.47384      1628.3357      5991.9694
    137000   0.99286653     1.0060112      7.5709253     -2669.3459     -4160.135       1490.7891     -4160.135      -5461.8012     -301.46607      1603.1323      5715.9184
    138000   0.99924483     1.0189082      7.6016723     -2660.8438     -4161.2099      1500.3661     -4161.2099     -5485.1153     -299.1705       1623.0759      5758.4747
    139000   1.018793       1.0112748      7.8538759     -2564.836      -4094.5537      1529.7177     -4094.5537     -5454.3604     -303.70308      1663.5098      6133.8134
    140000   0.97749847     1.0041032      7.2641846     -2710.3037     -4178.0177      1467.714      -4178.0177     -5422.853      -302.51887      1547.3542      5335.2264
    141000   1.0240859      1.0227353      7.120291      -2666.6678     -4204.3327      1537.6649     -4204.3327     -5419.6476     -303.85214      1519.167       5219.4913
    142000   0.98550581     1.0019873      7.6073497     -2692.07       -4171.807       1479.737      -4171.807      -5482.5684     -300.64386      1611.4052      5733.5365
    143000   0.99474661     0.98496075     7.335543      -2673.4421     -4167.0541      1493.612      -4167.0541     -5431.3922     -304.36367      1568.7017      5451.1218
    144000   0.98107923     0.98103145     7.1351559     -2756.366      -4229.4565      1473.0905     -4229.4565     -5456.8354     -299.6238       1527.0027      5146.2569
    145000   1.0038453      0.99653626     7.3589414     -2672.1008     -4179.3745      1507.2737     -4179.3745     -5456.1315     -297.54879      1574.3058      5478.3783
    146000   0.99731888     0.97876563     7.2248466     -2667.2562     -4164.7305      1497.4743     -4164.7305     -5400.7209     -297.53957      1533.53        5334.7047
    147000   1.0156556      1.0120036      7.2989595     -2628.4877     -4153.4946      1525.0069     -4153.4946     -5403.8595     -295.6866       1546.0515      5455.5578
    148000   0.98724995     1.0062807      7.6553605     -2671.001      -4153.3568      1482.3558     -4153.3568     -5485.304      -296.59118      1628.5384      5807.7804
    149000   0.93519948     0.97350152     7.5024136     -2720.7392     -4124.9412      1404.202      -4124.9412     -5426.4452     -300.34684      1601.8508      5588.6442
    150000   1.0227807      1.0148193      6.9766467     -2655.5909     -4191.296       1535.7051     -4191.296      -5384.474      -297.76396      1490.9419      5071.4734
    151000   1.001573       1.0146451      7.3671106     -2677.3857     -4181.2476      1503.8619     -4181.2476     -5453.7518     -299.66648      1572.1707      5482.1413
    152000   0.98986798     0.9911372      7.2129353     -2721.5321     -4207.8189      1486.2868     -4207.8189     -5454.4192     -303.1453       1549.7455      5267.2362
    153000   1.0411326      1.0161084      7.2518318     -2616.0591     -4179.3197      1563.2606     -4179.3197     -5414.245      -305.99541      1540.9207      5415.7895
    154000   1.0074325      0.99639772     7.3804458     -2628.9771     -4141.6371      1512.66       -4141.6371     -5414.204      -299.54746      1572.1144      5545.3195
    155000   0.98365386     0.94599445     7.0760624     -2744.072      -4221.0282      1476.9563     -4221.0282     -5445.7711     -304.39746      1529.1403      5093.1013
    156000   1.0890534      1.0494924      7.3665223     -2554.1067     -4189.3204      1635.2137     -4189.3204     -5417.9462     -303.63512      1532.261       5604.7687
    157000   0.99921468     0.9893757      7.6687297     -2600.5784     -4100.8992      1500.3208     -4100.8992     -5420.819      -303.63867      1623.5584      5893.0102
    158000   0.97962526     1.0109648      7.4912909     -2635.2141     -4106.1215      1470.9073     -4106.1215     -5408.8649     -298.3138       1601.0572      5661.8501
    159000   0.98994076     1.0011547      7.2241268     -2703.5904     -4189.9864      1486.396      -4189.9864     -5416.9697     -302.12259      1529.1059      5297.5733
    160000   1.0186961      0.99119528     7.4543913     -2689.8147     -4219.3868      1529.5722     -4219.3868     -5515.124      -299.65498      1595.3922      5566.3811
    161000   0.98806309     0.98958839     7.3822601     -2674.307      -4157.8838      1483.5767     -4157.8838     -5448.7172     -299.66054      1590.494       5501.999
    162000   1.0215115      1.0207198      7.6220604     -2567.5554     -4101.3549      1533.7995     -4101.3549     -5411.4886     -299.47873      1609.6124      5874.3441
    163000   1.018097       0.99234664     7.5677203     -2620.3437     -4149.0163      1528.6726     -4149.0163     -5449.3943     -301.24815      1601.6262      5761.3708
    164000   1.0528993      1.0333258      7.5339899     -2542.6084     -4123.5366      1580.9283     -4123.5366     -5428.4753     -300.14562      1605.0842      5801.7477
    165000   1.005269       0.99629352     7.4869114     -2623.2402     -4132.6516      1509.4114     -4132.6516     -5430.2966     -295.966        1593.611       5668.9735
    166000   1.0088116      0.99909264     7.3259595     -2662.3404     -4177.071       1514.7306     -4177.071      -5431.2723     -301.35403      1555.5553      5451.6093
    167000   0.97589303     0.98163965     7.9698        -2626.0186     -4091.322       1465.3034     -4091.322      -5485.1011     -301.43478      1695.2138      6201.0239
    168000   1.032134       1.0271064      7.5218166     -2581.5108     -4131.2601      1549.7492     -4131.2601     -5427.0533     -296.27717      1592.0704      5749.3625
    169000   0.99581326     1.0136796      7.3931086     -2649.2238     -4144.4374      1495.2136     -4144.4374     -5414.8143     -299.01022      1569.3871      5539.0975
    170000   0.95767873     0.99314188     7.4004152     -2707.6926     -4145.6472      1437.9546     -4145.6472     -5420.8671     -306.15577      1581.3757      5488.7212
    171000   1.0409056      1.0034193      7.5319243     -2572.1467     -4135.0665      1562.9198     -4135.0665     -5429.5712     -301.47707      1595.9818      5769.9216
    172000   1.0445493      1.0243114      7.1495075     -2651.4535     -4219.8443      1568.3907     -4219.8443     -5441.0137     -303.19         1524.3594      5267.0647
    173000   1.0338805      1.0168636      7.3844623     -2587.0797     -4139.4512      1552.3716     -4139.4512     -5396.073      -303.01774      1559.6395      5591.6654
    174000   1.0062892      0.99607289     7.553032      -2657.9663     -4168.9094      1510.9432     -4168.9094     -5488.0194     -299.49228      1618.6022      5707.4801
    175000   0.99404948     1.005937       7.380527      -2683.6773     -4176.2426      1492.5653     -4176.2426     -5437.6422     -300.64198      1562.0416      5490.7092
    176000   1.0392824      1.0335767      7.6230497     -2592.5921     -4153.0747      1560.4825     -4153.0747     -5461.0707     -302.003        1609.9991      5850.4031
    177000   0.9622233      0.99656384     7.2745028     -2667.754      -4112.5323      1444.7783     -4112.5323     -5372.1745     -296.61255      1556.2547      5389.2042
    178000   1.008426       0.98951276     7.7129732     -2606.3368     -4120.4884      1514.1516     -4120.4884     -5454.8414     -301.44118      1635.7942      5936.2542
    179000   1.0093312      1.0186591      7.1510122     -2702.2673     -4217.7781      1515.5108     -4217.7781     -5433.2747     -301.89297      1517.3896      5217.9175
    180000   1.0138886      1.0401772      7.2952651     -2646.8207     -4169.1744      1522.3538     -4169.1744     -5410.6393     -301.9145       1543.3794      5433.133
    181000   1.0224906      1.0191217      7.6790197     -2537.7626     -4073.0322      1535.2696     -4073.0322     -5397.7388     -297.85248      1622.5591      5967.2229
    182000   1.0208306      1.0117849      7.4118434     -2604.8717     -4137.6489      1532.7772     -4137.6489     -5408.7811     -299.76113      1570.8933      5604.1996
    183000   0.98856848     1.0132434      7.2837817     -2689.9519     -4174.2874      1484.3356     -4174.2874     -5433.7413     -300.55304      1560.0069      5377.2833
    184000   1.0307168      1.0206309      7.5375679     -2590.4615     -4138.0827      1547.6212     -4138.0827     -5431.8016     -302.25547      1595.9743      5757.8574
    185000   1.032585       1.0199677      8.02994       -2513.1255     -4063.5518      1550.4263     -4063.5518     -5447.2754     -297.21886      1680.9425      6380.5257
    186000   1.0236849      1.016754       7.2795497     -2687.4078     -4224.4706      1537.0628     -4224.4706     -5481.0559     -298.58568      1555.1709      5375.1402
    187000   1.0027862      1.0232635      7.5671145     -2618.8194     -4124.5029      1505.6835     -4124.5029     -5424.6341     -300.57223      1600.7034      5762.2242
    188000   1.0366895      1.0154217      7.4703273     -2610.4508     -4167.04        1556.5892     -4167.04       -5458.9973     -300.44961      1592.4069      5663.395
    189000   1.0084997      1.0055552      7.739639      -2534.3272     -4048.5895      1514.2623     -4048.5895     -5395.5988     -301.86776      1648.8771      6037.7979
    190000   0.97235788     0.97485804     7.532787      -2622.6135     -4082.6088      1459.9954     -4082.6088     -5371.4848     -303.30233      1592.1783      5720.4103
    191000   1.0000993      1.0058643      6.9768541     -2731.7417     -4233.3908      1501.6491     -4233.3908     -5416.8241     -299.95024      1483.3835      4995.5522
    192000   0.9870203      1.0025366      7.0104142     -2743.5851     -4225.596       1482.011      -4225.596      -5425.6542     -296.51201      1496.5701      5020.8787
    193000   0.99527493     1.0142217      7.7533668     -2533.6844     -4028.0897      1494.4053     -4028.0897     -5358.9464     -297.66484      1628.5215      6053.6451
    194000   0.98571742     1.0016385      7.4521244     -2653.315      -4133.3697      1480.0547     -4133.3697     -5424.9727     -301.69399      1593.297       5600.37
    195000   0.98507548     0.99129692     7.110596      -2697.5496     -4176.6404      1479.0908     -4176.6404     -5403.6435     -300.8095       1527.8125      5177.8717
    196000   1.0103552      1.0199967      7.1583662     -2663.2009     -4180.2493      1517.0484     -4180.2493     -5404.3849     -299.47724      1523.6128      5265.1289
    197000   1.0201025      1.0268758      7.6162636     -2555.571      -4087.2549      1531.6839     -4087.2549     -5392.9896     -303.33149      1609.0662      5879.9081
    198000   1.0046325      0.99123067     7.3831285     -2581.0701     -4089.5257      1508.4557     -4089.5257     -5360.9045     -302.74109      1574.1199      5596.1978
    199000   0.99749525     1.0144314      8.0285224     -2573.9185     -4071.6576      1497.7391     -4071.6576     -5461.3679     -302.52104      1692.2314      6318.1626
    200000   1.0109853      1.0101763      7.8706766     -2599.144      -4117.1384      1517.9944     -4117.1384     -5493.9591     -296.21755      1673.0383      6118.1133
    201000   0.98122801     0.98166668     7.5549045     -2622.6653     -4095.9792      1473.3139     -4095.9792     -5402.8608     -301.36696      1608.2486      5744.8549
    202000   0.9920662      0.99718182     7.2579259     -2707.6236     -4197.211       1489.5874     -4197.211      -5462.4117     -303.08165      1568.2823      5330.9747
    203000   1.0133462      0.99448858     7.6040505     -2597.9714     -4119.5107      1521.5393     -4119.5107     -5430.7973     -291.9939       1603.2806      5823.9811
    204000   1.0210751      1.0316609      7.7387296     -2570.4436     -4103.5878      1533.1443     -4103.5878     -5431.2619     -302.55699      1630.2311      6000.6743
    205000   1.0568157      1.0293817      7.3684895     -2530.4124     -4117.2213      1586.8088     -4117.2213     -5364.9828     -298.0162       1545.7777      5630.6417
    206000   1.007127       0.97781532     7.8820905     -2596.7838     -4108.9851      1512.2012     -4108.9851     -5460.8116     -304.16431      1655.9908      6133.115
    207000   1.0256323      1.0133536      7.2441565     -2594.7989     -4134.7857      1539.9868     -4134.7857     -5376.4779     -302.35205      1544.0442      5428.5489
    208000   1.0131438      1.0182163      7.1110534     -2725.4601     -4246.6955      1521.2354     -4246.6955     -5464.8584     -304.47124      1522.6342      5150.4678
    209000   0.99554239     0.97460283     7.5987536     -2575.9051     -4070.712       1494.8069     -4070.712      -5379.0137     -298.25232      1606.554       5840.1808
    210000   1.01713        1.0104896      7.0890963     -2628.6403     -4155.861       1527.2206     -4155.861      -5361.7081     -300.71449      1506.5616      5222.9688
    211000   0.9714518      0.97346686     7.5725585     -2656.7836     -4115.4185      1458.6349     -4115.4185     -5440.9769     -297.61919      1623.1776      5730.2896
    212000   1.0039168      1.0104282      7.0975037     -2706.5795     -4213.9606      1507.3811     -4213.9606     -5428.5574     -299.01041      1513.6072      5154.3414
    213000   1.0293122      1.0463861      7.2821943     -2644.5509     -4190.0632      1545.5123     -4190.0632     -5439.3546     -300.87294      1550.1643      5420.9261
    214000   0.9876481      0.982363       7.7178778     -2628.5099     -4111.4635      1482.9536     -4111.4635     -5459.3985     -304.85777      1652.7927      5919.5132
    215000   1.0020591      0.99201874     7.3946522     -2609.201      -4113.7927      1504.5917     -4113.7927     -5387.8391     -297.68581      1571.7322      5580.8301
    216000   1.0269007      0.98707709     7.6056854     -2617.0609     -4158.9524      1541.8914     -4158.9524     -5468.3412     -300.02743      1609.4163      5806.7023
    217000   1.025061       1.0001112      7.6687411     -2596.2117     -4135.3408      1539.1292     -4135.3408     -5446.4424     -302.80682      1613.9084      5897.3896
    218000   0.97667761     0.98322105     7.3092831     -2637.794      -4104.2754      1466.4814     -4104.2754     -5354.2033     -296.94317      1546.8711      5457.6855
    219000   0.99174046     1.0018476      7.4640039     -2667.4995     -4156.5978      1489.0983     -4156.5978     -5435.1025     -298.03127      1576.536       5599.3428
    220000   0.98545796     0.97957173     7.3228048     -2636.1891     -4115.8543      1479.6651     -4115.8543     -5366.1856     -302.11578      1552.4472      5474.2664
    221000   1.053973       1.0251384      7.6620439     -2550.4133     -4132.9537      1582.5404     -4132.9537     -5450.0727     -303.41411      1620.5331      5935.7704
    222000   1.0205024      1.0141823      7.3256999     -2651.1455     -4183.4298      1532.2843     -4183.4298     -5436.7202     -305.11618      1558.4065      5462.5167
    223000   0.9911167      0.99566083     7.3985853     -2657.9865     -4146.1482      1488.1617     -4146.1482     -5421.513      -295.07452      1570.4393      5536.4006
    224000   0.98686601     1.0055822      7.2637599     -2728.3026     -4210.0819      1481.7793     -4210.0819     -5459.8646     -300.30252      1550.0852      5316.7572
    225000   0.97569976     0.96808115     7.3905055     -2704.844      -4169.8572      1465.0132     -4169.8572     -5447.5484     -303.7205       1581.4117      5480.5942
    226000   0.97602039     0.97635987     7.4735409     -2691.3255     -4156.8201      1465.4946     -4156.8201     -5445.6951     -300.32211      1589.1971      5586.0796
    227000   0.96512983     0.9915241      7.4509893     -2680.2427     -4129.3851      1449.1424     -4129.3851     -5427.2692     -296.2071       1594.0912      5572.1852
    228000   0.94458635     0.96846291     7.6084356     -2698.7977     -4117.0941      1418.2964     -4117.0941     -5443.6976     -303.53023      1630.1338      5728.0115
    229000   1.0040767      1.0037691      7.4729353     -2671.6548     -4179.276       1507.6211     -4179.276      -5460.5341     -300.7944       1582.0526      5605.0795
    230000   1.0402829      1.0192167      7.6679051     -2606.0616     -4168.0463      1561.9847     -4168.0463     -5484.6894     -300.16445      1616.8076      5886.6138
    231000   0.97385478     0.99756542     7.0031661     -2753.3428     -4215.5857      1462.2429     -4215.5857     -5401.6505     -299.0812       1485.146       5003.0934
    232000   1.0096718      1.0093072      7.3516333     -2671.8244     -4187.8466      1516.0222     -4187.8466     -5456.2812     -301.06052      1569.4951      5470.5605
    233000   1.0221709      1.0098883      7.2918643     -2713.2187     -4248.0083      1534.7896     -4248.0083     -5510.8626     -304.25938      1567.1137      5362.9684
    234000   1.0040647      1.0080877      7.4607636     -2658.0325     -4165.6356      1507.6031     -4165.6356     -5455.7717     -304.55193      1594.688       5605.221
    235000   1.0273098      0.98470926     7.2907401     -2674.4331     -4216.9387      1542.5056     -4216.9387     -5483.908      -299.71171      1566.681       5400.5089
    236000   1.0391477      1.0001174      7.1808266     -2600.0902     -4160.3704      1560.2802     -4160.3704     -5386.9681     -299.30003      1525.8977      5353.1159
    237000   0.97820351     1.0069084      7.5727769     -2654.942      -4123.7145      1468.7726     -4123.7145     -5438.2303     -301.3174       1615.8331      5732.3731
    238000   0.9929073      0.98627625     7.4032013     -2681.6149     -4172.4652      1490.8503     -4172.4652     -5436.5504     -300.96138      1565.0466      5517.8847
    239000   1.0177626      1.0277146      7.5189634     -2609.3986     -4137.5692      1528.1705     -4137.5692     -5434.2961     -299.82318      1596.5501      5718.3147
    240000   0.97797461     0.96961669     7.3784112     -2703.9599     -4172.3888      1468.4289     -4172.3888     -5441.9188     -296.51284      1566.0428      5468.0832
    241000   0.98898045     1.00685        7.3550284     -2618.3958     -4103.35        1484.9542     -4103.35       -5358.8459     -297.65973      1553.1556      5527.7494
    242000   0.98453982     0.98401658     7.0264847     -2689.3158     -4167.6023      1478.2865     -4167.6023     -5364.7928     -300.36477      1497.5553      5092.9471
    243000   1.0363014      1.0116009      7.1379533     -2590.2808     -4146.2873      1556.0065     -4146.2873     -5354.7198     -301.58269      1510.0152      5315.4404
    244000   1.0182341      1.0121994      7.706499      -2607.8857     -4136.7641      1528.8784     -4136.7641     -5459.7105     -298.54212      1621.4884      5927.5348
    245000   0.99024332     1.0124372      7.7211027     -2631.125      -4117.9753      1486.8503     -4117.9753     -5445.9496     -301.72014      1629.6944      5920.4699
    246000   0.99742785     0.96454922     7.5520985     -2594.4553     -4092.0932      1497.6379     -4092.0932     -5389.0935     -300.427        1597.4272      5769.9571
    247000   0.96760045     0.96326308     7.2161997     -2723.7343     -4176.5863      1452.8521     -4176.5863     -5435.1938     -300.79185      1559.3993      5268.6497
    248000   1.0218279      1.0210706      7.1451323     -2663.6284     -4197.903       1534.2746     -4197.903      -5411.0269     -302.47904      1515.6029      5250.044
    249000   0.99785142     0.99898782     7.6333313     -2657.1794     -4155.4533      1498.2739     -4155.4533     -5459.839      -303.42408      1607.8098      5797.2034
    250000   1.0137078      1.0063265      7.3794845     -2664.199      -4186.2813      1522.0822     -4186.2813     -5457.405      -300.9065       1572.0302      5509.0328
    251000   1.0131044      1.0122606      7.627913      -2601.0011     -4122.1773      1521.1763     -4122.1773     -5432.708      -302.36735      1612.898       5847.3806
    252000   1.0293168      1.0222261      7.9594931     -2509.8658     -4055.3849      1545.5192     -4055.3849     -5422.4701     -298.66267      1665.7478      6305.7612
    253000   1.0332744      1.0102649      7.5309901     -2591.284      -4142.7455      1551.4615     -4142.7455     -5432.8354     -302.34683      1592.4368      5749.7496
    254000   1.0032211      0.98987539     7.3854709     -2594.7775     -4101.114       1506.3364     -4101.114      -5367.3993     -297.76583      1564.0512      5585.0846
    255000   1.039168       0.99822297     7.4654441     -2553.9411     -4114.252       1560.3108     -4114.252      -5381.1725     -302.79607      1569.7166      5714.4963
    256000   1.0315854      1.0106129      7.4415744     -2571.0657     -4119.9912      1548.9255     -4119.9912     -5406.0333     -296.98618      1583.0283      5670.9346
    257000   0.97912682     0.98048185     7.1833119     -2728.0471     -4198.2061      1470.1589     -4198.2061     -5428.3357     -303.95318      1534.0829      5227.9115
    258000   1.0472277      1.0323795      7.4530463     -2615.5682     -4187.9805      1572.4124     -4187.9805     -5473.6545     -301.5419       1587.2158      5639.1379
    259000   0.98085898     0.99979639     7.9026579     -2577.6652     -4050.425       1472.7598     -4050.425      -5418.6167     -299.1277       1667.3194      6175.0133
    260000   1.0309945      1.0237303      7.6468956     -2573.6682     -4121.7065      1548.0383     -4121.7065     -5450.4349     -294.62876      1623.3572      5895.7379
    261000   0.99236736     0.9723232      7.5648169     -2569.6978     -4059.7374      1490.0396     -4059.7374     -5360.4044     -299.56324      1600.2303      5808.8011
    262000   0.96560012     1.0164306      7.5796645     -2693.7898     -4143.6384      1449.8486     -4143.6384     -5468.3442     -295.82301      1620.5289      5701.1536
    263000   1.0255181      0.99788087     7.5877789     -2620.078      -4159.8934      1539.8154     -4159.8934     -5457.3528     -303.06478      1600.5242      5783.8527
    264000   1.0104587      0.99858033     7.4752439     -2683.722      -4200.9257      1517.2037     -4200.9257     -5502.7852     -302.84954      1604.709       5595.5693
    265000   0.98771523     0.99794862     7.2270674     -2726.8094     -4209.8638      1483.0544     -4209.8638     -5458.5389     -302.56134      1551.2364      5277.6112
    266000   0.9904783      1.0038408      7.3308664     -2682.6479     -4169.8511      1487.2032     -4169.8511     -5427.2994     -302.55723      1560.0055      5436.7364
    267000   0.96399858     0.98775902     7.1339769     -2716.53       -4163.9738      1447.4439     -4163.9738     -5387.6481     -298.36718      1522.0415      5184.7871
    268000   1.0017828      1.0069384      7.4920863     -2690.8859     -4195.0627      1504.1768     -4195.0627     -5486.553      -299.56491      1591.0552      5607.0594
    269000   0.99946145     0.99475465     7.5413257     -2646.1538     -4146.8452      1500.6914     -4146.8452     -5456.4398     -299.93023      1609.5249      5706.3271
    270000   1.022299       1.0246706      7.6127766     -2627.5443     -4162.5263      1534.982      -4162.5263     -5464.4373     -302.64989      1604.5609      5804.0729
    271000   1.0184309      0.98722202     7.2731252     -2628.8865     -4158.0605      1529.174      -4158.0605     -5400.1083     -297.98785      1540.0357      5426.5459
    272000   1.0348484      1.004785       7.5891004     -2521.1871     -4075.012       1553.8249     -4075.012      -5357.6715     -299.2796       1581.9391      5884.2072
    273000   1.0164601      0.99357308     7.3308819     -2570.4102     -4096.625       1526.2148     -4096.625      -5349.3941     -300.53158      1553.3006      5548.9912
    274000   1.0182831      0.98828796     7.5673424     -2583.0608     -4112.0128      1528.952      -4112.0128     -5407.5197     -297.22734      1592.7343      5798.2352
    275000   1.0202205      1.0031181      7.2885528     -2699.3543     -4231.2153      1531.861      -4231.2153     -5488.7271     -300.07119      1557.5829      5373.1651
    276000   1.0060271      1.0220848      7.9322205     -2572.5176     -4083.0673      1510.5497     -4083.0673     -5459.5349     -299.10517      1675.5728      6212.9033
    277000   0.993838       0.99720006     7.3963624     -2702.6242     -4194.8719      1492.2478     -4194.8719     -5469.864      -300.57541      1575.5675      5489.301
    278000   0.97739413     1.0047994      7.5496596     -2701.7101     -4169.2674      1467.5573     -4169.2674     -5474.7375     -303.24245      1608.7125      5660.0011
    279000   1.0516384      1.0428824      7.4865274     -2552.3129     -4131.348       1579.0351     -4131.348      -5394.4316     -301.79523      1564.8788      5739.4755
    280000   1.0104401      1.0204207      7.5167643     -2631.851      -4149.0269      1517.1759     -4149.0269     -5445.4692     -296.47708      1592.9195      5693.4267
    281000   0.98892371     0.99405688     7.5087233     -2654.3448     -4139.2137      1484.8689     -4139.2137     -5428.5577     -302.16899      1591.513       5662.0269
    282000   0.97810962     0.97101178     7.3459288     -2633.1072     -4101.7388      1468.6316     -4101.7388     -5367.4598     -294.86539      1560.5864      5502.9596
    283000   1.0051988      1.0292797      7.5033629     -2603.9911     -4113.2972      1509.306      -4113.2972     -5390.4572     -299.45513      1576.6152      5706.4436
    284000   0.9989375      1.0016779      7.3752334     -2644.6748     -4144.5795      1499.9047     -4144.5795     -5417.403      -300.74335      1573.5668      5523.8487
    285000   1.0280436      1.0253225      7.5753091     -2614.9498     -4158.5572      1543.6074     -4158.5572     -5469.3871     -297.75881      1608.5887      5775.1698
    286000   1.0061399      1.0095973      7.7618784     -2580.2197     -4090.9388      1510.7191     -4090.9388     -5433.783      -299.48946      1642.3337      6016.5368
    287000   0.98955634     0.99734368     7.3001426     -2700.4634     -4186.2822      1485.8189     -4186.2822     -5438.3447     -302.01233      1554.0748      5384.8924
    288000   0.97423231     0.97227712     7.4874728     -2704.2485     -4167.0583      1462.8098     -4167.0583     -5467.4892     -303.07667      1603.5075      5588.587
    289000   1.0457887      0.99692141     7.5270014     -2577.2834     -4147.5352      1570.2518     -4147.5352     -5440.5886     -299.65775      1592.7111      5759.3324
    290000   1.0570191      1.042564       7.3338595     -2611.3987     -4198.5128      1587.1141     -4198.5128     -5455.7243     -301.29433      1558.5058      5511.3007
    291000   1.0330239      0.99950795     7.160722      -2593.1126     -4144.1979      1551.0854     -4144.1979     -5350.6341     -302.77021      1509.2063      5337.8263
    292000   1.0135693      0.99728608     7.5064944     -2640.9531     -4162.8275      1521.8744     -4162.8275     -5471.0812     -299.64307      1607.8968      5672.95
    293000   1.0134423      1.0011075      7.3128728     -2623.1772     -4144.8608      1521.6837     -4144.8608     -5396.9671     -302.98984      1555.0961      5476.2782
    294000   0.99409001     0.98851033     7.9364672     -2609.7681     -4102.3943      1492.6261     -4102.3943     -5464.7781     -306.23615      1668.6199      6180.3562
    295000   1.0296872      1.0109823      7.5168266     -2648.7276     -4194.803       1546.0754     -4194.803      -5481.5943     -302.66558      1589.4569      5676.619
    296000   0.98105264     0.9764734      7.6097472     -2652.3936     -4125.4442      1473.0505     -4125.4442     -5456.2039     -298.32299      1629.0828      5775.8683
    297000   1.0337134      0.99736759     7.4545599     -2575.7795     -4127.9002      1552.1207     -4127.9002     -5385.6595     -301.34577      1559.1051      5680.603
    298000   1.0519638      1.0054753      7.3306191     -2594.3963     -4173.92        1579.5237     -4173.92       -5412.3168     -301.73913      1540.136       5524.7141
    299000   1.0166587      1.0013362      7.2409494     -2617.1251     -4143.6381      1526.513      -4143.6381     -5377.7776     -304.91503      1539.0545      5402.6707
    300000   0.98020549     1.0055574      7.7054605     -2596.7787     -4068.5573      1471.7785     -4068.5573     -5394.8039     -294.58915      1620.8358      5937.4916
    301000   0.98609563     1.0024089      7.4764207     -2674.6532     -4155.2757      1480.6226     -4155.2757     -5429.5088     -304.48004      1578.7131      5605.9414
    302000   0.98355884     0.98614314     7.476033      -2682.6682     -4159.4818      1476.8136     -4159.4818     -5453.0883     -302.05515      1595.6616      5597.4971
    303000   1.0199151      1.0123779      7.4162656     -2595.8333     -4127.2358      1531.4025     -4127.2358     -5402.0127     -299.36443      1574.1413      5618.1359
    304000   0.98877612     0.97960415     7.3014488     -2657.3084     -4141.9557      1484.6473     -4141.9557     -5390.6836     -300.99018      1549.718       5429.4942
    305000   1.0123335      1.0203783      7.3973847     -2596.5393     -4116.5579      1520.0187     -4116.5579     -5380.8053     -304.46397      1568.7113      5596.5182
    306000   1.0156142      1.0065354      7.474891      -2643.217      -4168.1617      1524.9448     -4168.1617     -5471.5071     -304.88991      1608.2353      5635.6834
    307000   1.021865       1.0364726      7.199332      -2673.9636     -4208.2939      1534.3304     -4208.2939     -5446.8057     -301.36443      1539.8762      5299.7384
    308000   0.98446271     0.97389941     7.9562374     -2611.0809     -4089.2517      1478.1708     -4089.2517     -5474.1831     -299.29327      1684.2247      6200.9402
    309000   1.0095368      1.0145693      7.4602061     -2656.8026     -4172.6221      1515.8195     -4172.6221     -5439.4333     -300.27393      1567.085       5605.8333
    310000   1.0054849      1.0203894      7.3006067     -2719.1263     -4228.8619      1509.7356     -4228.8619     -5507.1748     -301.1033       1579.4162      5366.7435
    311000   1.0087424      1.0123014      7.6621515     -2628.4381     -4143.0649      1514.6267     -4143.0649     -5463.8541     -300.91612      1621.7054      5857.8648
    312000   1.0230411      0.98948041     7.6260775     -2604.9356     -4141.0319      1536.0963     -4141.0319     -5445.9515     -302.12618      1607.0458      5841.4131
    313000   1.0090699      1.011421       7.6662447     -2607.7445     -4122.863       1515.1184     -4122.863      -5460.0213     -296.50501      1633.6633      5883.0919
    314000   1.0884401      1.0582907      7.4608163     -2564.0445     -4198.3372      1634.2927     -4198.3372     -5478.071      -298.18142      1577.9151      5699.2674
    315000   1.0441042      1.0285065      7.4616642     -2568.1477     -4135.8702      1567.7225     -4135.8702     -5387.559      -302.52617      1554.215       5696.1032
    316000   0.98265104     0.99840962     7.0106377     -2758.5255     -4233.976       1475.4505     -4233.976      -5442.649      -298.12531      1506.7983      5006.1859
    317000   0.98784598     0.99387372     7.4537911     -2606.5261     -4089.7768      1483.2507     -4089.7768     -5374.9756     -298.38317      1583.582       5649.0049
    318000   1.008774       1.0125887      7.3629017     -2592.9487     -4107.6228      1514.6741     -4107.6228     -5367.5484     -298.71746      1558.643       5561.9167
    319000   0.9419199      0.96121049     7.7956702     -2621.3637     -4035.6565      1414.2927     -4035.6565     -5390.7813     -295.93491      1651.0597      6012.8193
    320000   1.0009992      1.0338194      7.7204751     -2610.6655     -4113.6658      1503.0003     -4113.6658     -5452.304      -298.25334      1636.8916      5940.2344
    321000   0.99305052     0.98432355     7.3333294     -2605.686      -4096.7514      1491.0654     -4096.7514     -5354.0035     -301.68433      1558.9364      5516.4262
    322000   0.99367186     0.98474082     7.2611823     -2674.9053     -4166.9036      1491.9983     -4166.9036     -5407.8324     -299.72075      1540.6496      5367.2996
    323000   1.0211106      1.0052872      7.2390349     -2601.1671     -4134.3647      1533.1975     -4134.3647     -5365.4254     -300.12967      1531.1904      5416.5082
    324000   0.98116187     0.99680122     7.5053968     -2668.0948     -4141.3094      1473.2145     -4141.3094     -5434.1582     -299.7199       1592.5687      5644.5926
    325000   1.0089225      1.01092        7.4611024     -2598.0509     -4112.948       1514.8971     -4112.948      -5396.5284     -301.25982      1584.8402      5665.5778
    326000   1.0277195      1.0159388      7.3855296     -2578.3143     -4121.4351      1543.1209     -4121.4351     -5376.1603     -302.34012      1557.0653      5601.6129
    327000   1.0185855      1.0215094      6.9664167     -2690.7675     -4220.1736      1529.4062     -4220.1736     -5420.2443     -297.05524      1497.1259      5024.9665
    328000   1.0478917      1.0235931      7.7500525     -2518.8606     -4092.27        1573.4094     -4092.27       -5415.3477     -301.3699       1624.4476      6064.7981
    329000   0.98393932     0.99419435     8.1311181     -2578.3019     -4055.6868      1477.3849     -4055.6868     -5480.4638     -303.47133      1728.2484      6427.4102
    330000   1.0046615      1.0091569      7.1460847     -2651.417      -4159.9161      1508.4992     -4159.9161     -5388.3442     -298.4036       1526.8317      5263.3103
    331000   1.006671       1.0039562      7.2129345     -2668.7546     -4180.2711      1511.5165     -4180.2711     -5412.1626     -300.00735      1531.8989      5320.0129
    332000   0.98537671     1.0137769      7.5230176     -2675.3806     -4154.9237      1479.5431     -4154.9237     -5464.1122     -300.88296      1610.0714      5656.8229
    333000   1.0080515      0.99924318     7.5004546     -2635.1107     -4148.7         1513.5893     -4148.7        -5434.8842     -300.88927      1587.0735      5672.1029
    334000   0.99324002     0.98890734     7.5375003     -2624.4582     -4115.8081      1491.3499     -4115.8081     -5418.0588     -300.05477      1602.3055      5723.7858
    335000   0.97832784     0.98651247     7.5518432     -2690.0846     -4159.0438      1468.9592     -4159.0438     -5461.4079     -303.05092      1605.415       5674.0451
    336000   0.98749529     0.99656858     7.6680095     -2686.9488     -4169.673       1482.7242     -4169.673      -5488.153      -300.91458      1619.3945      5805.8421
    337000   1.0085449      1.0144128      7.1124165     -2681.8956     -4196.2257      1514.3302     -4196.2257     -5411.7495     -301.00682      1516.5305      5195.542
    338000   0.99328816     1.0059256      7.4820193     -2741.6936     -4233.1158      1491.4222     -4233.1158     -5533.45       -304.27557      1604.6098      5545.1019
    339000   0.99995334     1.0107423      7.4073909     -2624.6932     -4126.1232      1501.4299     -4126.1232     -5389.766      -301.74336      1565.3862      5579.4466
    340000   0.99937098     1.0012511      7.8515105     -2572.1268     -4072.6823      1500.5555     -4072.6823     -5430.9478     -294.44021      1652.7057      6123.9028
    341000   0.98413352     0.9893283      7.488615      -2680.8389     -4158.5153      1477.6765     -4158.5153     -5442.9396     -298.52011      1582.9444      5613.2617
    342000   1.006797       0.99145171     7.4275184     -2692.9076     -4204.6133      1511.7057     -4204.6133     -5480.0884     -304.89878      1580.3738      5533.5248
    343000   0.98262383     0.9918093      7.504742      -2696.8326     -4172.2423      1475.4097     -4172.2423     -5467.7253     -300.53044      1596.0135      5615.1296
    344000   1.0281067      1.0255677      7.7929208     -2594.3106     -4138.0127      1543.7022     -4138.0127     -5470.7112     -295.67837      1628.3769      6036.8274
    345000   1.0174873      1.0192142      7.3335433     -2676.596      -4204.3531      1527.7572     -4204.3531     -5464.3826     -294.02909      1554.0586      5445.7532
    346000   1.0046245      0.99400988     7.4333414     -2657.236      -4165.6797      1508.4437     -4165.6797     -5470.9465     -298.81387      1604.0806      5575.6456
    347000   0.98396639     1.0089111      7.305599      -2668.6148     -4146.0403      1477.4255     -4146.0403     -5398.9713     -296.16479      1549.0957      5422.7844
    348000   0.9976629      0.98721748     7.1230443     -2729.9149     -4227.9057      1497.9908     -4227.9057     -5442.811      -300.93383      1515.8391      5159.2937
    349000   0.9844147      0.99274174     7.3624873     -2620.6066     -4098.7053      1478.0987     -4098.7053     -5358.7012     -300.80617      1560.8021      5533.7998
    350000   1.0252988      0.99540157     7.4241403     -2612.1709     -4151.657       1539.4862     -4151.657      -5429.3502     -297.35441      1575.0476      5610.5201
    351000   1.0454341      1.0382618      7.3607808     -2588.778      -4158.4973      1569.7192     -4158.4973     -5412.4485     -303.32573      1557.2769      5563.7384
    352000   0.96468236     0.97809148     7.5997476     -2617.6121     -4066.0826      1448.4706     -4066.0826     -5364.8685     -299.22729      1598.0132      5799.5747
    353000   0.98846055     0.98365007     7.3663767     -2656.5121     -4140.6856      1484.1735     -4140.6856     -5408.012      -300.68642      1568.0128      5502.2021
    354000   1.0128192      1.022293       7.4913895     -2650.86       -4171.608       1520.748      -4171.608      -5459.8512     -305.05927      1593.3024      5646.3135
    355000   0.97478384     0.97897765     7.1977165     -2644.1886     -4107.8265      1463.6379     -4107.8265     -5333.1138     -298.54002      1523.8273      5327.7241
    356000   0.99356649     0.99837975     7.2011394     -2653.4361     -4145.2761      1491.8401     -4145.2761     -5374.2886     -301.91814      1530.9306      5322.2677
    357000   0.97774207     0.99549969     7.531262      -2629.1265     -4097.2062      1468.0797     -4097.2062     -5390.7061     -304.04959      1597.5495      5712.2082
    358000   0.99760536     0.99922518     7.5498716     -2634.6319     -4132.5363      1497.9045     -4132.5363     -5445.665      -301.37044      1614.499       5727.3142
    359000   1.0112708      1.0214045      7.6105295     -2617.7512     -4136.1743      1518.4231     -4136.1743     -5449.7398     -304.59235      1618.1579      5811.3772
    360000   1.005852       0.98606023     7.5688979     -2655.518      -4165.8047      1510.2867     -4165.8047     -5466.166      -301.91824      1602.2795      5727.5009
    361000   0.97638925     0.97708646     7.7161475     -2617.9604     -4084.0089      1466.0485     -4084.0089     -5411.8143     -302.95801      1630.7635      5928.1464
    362000   1.0091522      1.0031732      7.21482       -2705.0753     -4220.3174      1515.2421     -4220.3174     -5476.8936     -302.52965      1559.1058      5285.7805
    363000   0.9504509      0.99586733     7.6559907     -2641.0919     -4068.1939      1427.102      -4068.1939     -5395.0794     -301.72475      1628.6103      5838.3875
    364000   0.9944715      0.98331258     7.4797646     -2625.4747     -4118.6736      1493.199      -4118.6736     -5410.4499     -298.46036      1590.2367      5658.8235
    365000   0.99978421     0.97357646     7.1191069     -2737.2238     -4238.3998      1501.176      -4238.3998     -5465.4129     -301.86168      1528.8748      5147.6238
    366000   1.0379292      1.0370706      7.6601275     -2563.3915     -4121.8421      1558.4506     -4121.8421     -5425.6658     -303.71228      1607.536       5920.6697
    367000   1.0012583      1.0063405      7.685373      -2628.2173     -4131.6066      1503.3893     -4131.6066     -5471.9807     -294.73759      1635.1116      5883.8048
    368000   0.95703721     0.96413552     7.2413684     -2723.6008     -4160.5922      1436.9914     -4160.5922     -5404.9955     -305.06493      1549.4683      5296.6589
    369000   1.0448556      1.0046482      7.6312938     -2580.0073     -4148.858       1568.8507     -4148.858      -5459.478      -300.9612       1611.5811      5872.1187
    370000   1.0284771      1.0125884      7.0304619     -2615.6927     -4159.9511      1544.2584     -4159.9511     -5350.4589     -298.04357      1488.5513      5170.9752
    371000   0.9909848      0.98815444     7.4444774     -2623.0543     -4111.018       1487.9637     -4111.018      -5383.362      -298.79193      1571.136       5622.1612
    372000   0.99631124     1.0069354      7.3147718     -2585.2094     -4081.1707      1495.9613     -4081.1707     -5326.3453     -299.31701      1544.4916      5516.3493
    373000   1.0085973      0.9903741      7.6660994     -2547.8197     -4062.2286      1514.4089     -4062.2286     -5389.6574     -294.04963      1621.4785      5942.8557
    374000   1.0178546      1.030156       7.234411      -2504.9545     -4033.2632      1528.3087     -4033.2632     -5248.5455     -300.04594      1515.3282      5507.5995
    375000   0.97551084     0.98976152     7.3328701     -2667.1506     -4131.8801      1464.7295     -4131.8801     -5397.9939     -301.83399      1567.9478      5454.4529
    376000   1.0036414      0.98961294     7.6129608     -2634.5502     -4141.5177      1506.9675     -4141.5177     -5458.2178     -300.59253      1617.2926      5797.271
    377000   0.96901082     0.97989168     7.2723301     -2720.2074     -4175.1772      1454.9698     -4175.1772     -5436.6873     -298.11903      1559.6292      5334.3443
    378000   0.9587216      0.97268828     7.1020824     -2759.6814     -4199.2019      1439.5205     -4199.2019     -5432.1291     -297.33923      1530.2664      5106.3106
    379000   0.97603706     1.0024022      7.2015705     -2730.613      -4196.1326      1465.5197     -4196.1326     -5436.7214     -297.62017      1538.209       5245.5682
    380000   1.0447         1.0176696      7.5015631     -2571.7638     -4140.3808      1568.617      -4140.3808     -5428.9628     -300.50784      1589.0897      5736.6775
    381000   1.0105807      1.0081134      7.5022727     -2594.1153     -4111.5022      1517.3869     -4111.5022     -5415.9319     -301.31921      1605.7489      5715.112
    382000   0.98344995     1.010643       7.7009075     -2625.384      -4102.0341      1476.6501     -4102.0341     -5434.4724     -301.6578       1634.0961      5903.8435
    383000   0.95631819     0.96642546     7.6174769     -2667.7667     -4103.6785      1435.9118     -4103.6785     -5430.1748     -298.05389      1624.5502      5769.0563
    384000   1.0073711      0.99162907     7.3624996     -2604.5004     -4117.0681      1512.5677     -4117.0681     -5372.0356     -301.75365      1556.7211      5549.9196
    385000   1.0060215      1.0067784      7.0325587     -2740.6016     -4251.1428      1510.5412     -4251.1428     -5457.9511     -305.49489      1512.3032      5048.3887
    386000   0.99997359     0.99337754     7.552479      -2571.9747     -4073.4351      1501.4604     -4073.4351     -5380.6809     -296.29438      1603.5402      5792.8592
    387000   1.0879824      1.0289074      7.6905189     -2493.9003     -4127.5058      1633.6055     -4127.5058     -5437.3847     -294.35592      1604.2348      6023.8212
    388000   0.97251066     0.98974732     7.5078858     -2692.7834     -4153.0081      1460.2248     -4153.0081     -5445.2577     -302.56048      1594.81        5622.6608
    389000   0.99022115     0.9805874      7.5520736     -2641.8472     -4128.6643      1486.8171     -4128.6643     -5431.4929     -297.39704      1600.2257      5722.5377
    390000   0.98149854     0.9895559      7.3425188     -2666.6429     -4140.363       1473.7201     -4140.363      -5382.2069     -302.16885      1544.0127      5465.6472
    391000   1.0310335      1.0383035      7.1088272     -2665.2215     -4213.3182      1548.0967     -4213.3182     -5452.5697     -296.50296      1535.7545      5208.2409
    392000   1.0204386      1.0264759      6.9275625     -2703.9353     -4236.1238      1532.1885     -4236.1238     -5421.9183     -302.61164      1488.4061      4968.7653
    393000   0.97161096     0.996086       7.2105771     -2692.5662     -4151.4401      1458.8739     -4151.4401     -5402.4807     -298.3876       1549.4282      5293.5903
    394000   1.0257474      1.0109353      7.2332118     -2631.7016     -4171.8613      1540.1598     -4171.8613     -5404.974      -300.92714      1534.0398      5379.5243
    395000   1.0687592      1.0106539      7.5923897     -2545.8074     -4150.5493      1604.7419     -4150.5493     -5453.6948     -299.35156      1602.4971      5863.23
    396000   0.95753042     0.96863858     7.2812243     -2772.0496     -4209.7815      1437.7319     -4209.7815     -5481.6655     -304.99224      1576.8762      5292.353
    397000   0.96793467     0.99984501     7.4470761     -2701.8674     -4155.2213      1453.3539     -4155.2213     -5455.1954     -302.48137      1602.4555      5546.2262
    398000   0.96885761     0.99398004     7.4973178     -2667.4154     -4122.1551      1454.7397     -4122.1551     -5420.1624     -303.43488      1601.4423      5636.3241
    399000   0.9835364      0.99090627     7.4427164     -2686.9164     -4163.6963      1476.7799     -4163.6963     -5453.9452     -302.16533      1592.4142      5556.3486
    400000   1.0038557      0.99685932     7.486268      -2588.4164     -4095.7057      1507.2893     -4095.7057     -5384.1649     -301.90332      1590.3625      5703.0848
    401000   1.0175233      1.0113634      7.3587466     -2594.9354     -4122.7467      1527.8113     -4122.7467     -5368.7074     -300.25487      1546.2155      5555.3279
    402000   0.96418381     0.97899154     7.5675083     -2660.0528     -4107.7748      1447.722      -4107.7748     -5406.8882     -301.90154      1601.015       5721.427
    403000   1.0082037      0.99533021     7.3444043     -2612.6732     -4126.491       1513.8178     -4126.491      -5383.8274     -301.0318       1558.3682      5521.7051
    404000   1.0091726      1.0256368      7.4707725     -2584.8333     -4100.1059      1515.2726     -4100.1059     -5380.5661     -295.32336      1575.7836      5689.5057
    405000   1.0408816      1.0405755      8.1110897     -2485.0388     -4047.9225      1562.8838     -4047.9225     -5441.3615     -300.58896      1694.028       6498.4907
    406000   1.0471443      1.0152911      7.751677      -2562.1224     -4134.4095      1572.2872     -4134.4095     -5475.7331     -304.02802      1645.3516      6023.3356
    407000   1.0085927      1.0105844      7.3892761     -2628.5781     -4142.98        1514.4019     -4142.98       -5415.3887     -295.26265      1567.6713      5555.4986
    408000   0.99131406     0.99906845     7.3515078     -2677.8678     -4166.3258      1488.4581     -4166.3258     -5422.8922     -305.36836      1561.9348      5464.3782
    409000   0.95830243     0.99072202     7.6179353     -2617.6054     -4056.4965      1438.8911     -4056.4965     -5371.6524     -302.09577      1617.2517      5819.7254
    410000   1.03582        1.0187216      7.6362935     -2598.9563     -4154.2401      1555.2837     -4154.2401     -5469.4697     -298.16509      1613.3947      5858.7072
    411000   0.98466927     1.0068188      7.8101964     -2625.116      -4103.597       1478.4809     -4103.597      -5455.9456     -301.36156      1653.7102      6025.1557
    412000   1.0067828      1.0181834      7.6244912     -2642.7673     -4154.4516      1511.6843     -4154.4516     -5478.833      -300.18584      1624.5673      5801.8246
    413000   0.94468511     0.9661697      7.5092662     -2697.2016     -4115.6463      1418.4447     -4115.6463     -5406.2042     -302.40784      1592.9657      5619.7715
    414000   1.0005656      1.0127744      7.4772795     -2620.4752     -4122.8244      1502.3492     -4122.8244     -5398.1221     -300.99584      1576.2935      5661.0706
    415000   0.98341938     1.0189601      7.4385016     -2675.4022     -4152.0064      1476.6042     -4152.0064     -5432.4276     -299.57196      1579.9932      5563.1947
    416000   0.99958067     1.0207849      7.3481863     -2585.8694     -4086.7398      1500.8704     -4086.7398     -5333.4985     -303.66044      1550.4191      5552.6977
    417000   0.93613481     0.98265372     7.4540781     -2761.1713     -4166.7777      1405.6064     -4166.7777     -5494.7236     -302.44751      1630.3934      5494.6775
    418000   1.0662777      1.0434612      7.6874953     -2503.9706     -4104.9867      1601.016      -4104.9867     -5422.6223     -298.84026      1616.4759      6010.4021
    419000   1.0195982      1.0192361      7.4710224     -2616.3001     -4147.2268      1530.9266     -4147.2268     -5426.6881     -298.31082      1577.7721      5658.3156
    420000   1.0062564      0.99203116     7.5670168     -2635.9079     -4146.8018      1510.8939     -4146.8018     -5448.7336     -299.70069      1601.6325      5745.0275
    421000   1.0163489      1.0097656      7.3747381     -2633.7504     -4159.7982      1526.0478     -4159.7982     -5438.046      -299.71101      1577.9588      5534.2245
    422000   0.99145205     0.97584508     7.370996      -2656.4954     -4145.1606      1488.6653     -4145.1606     -5421.6497     -296.74352      1573.2326      5507.3349
    423000   0.97051656     0.98681408     7.4151883     -2604.7521     -4061.9827      1457.2306     -4061.9827     -5322.3035     -299.27365      1559.5945      5608.0239
    424000   1.0102036      1.0043548      7.4206908     -2595.0827     -4111.9034      1516.8207     -4111.9034     -5373.1254     -302.62076      1563.8428      5623.7876
    425000   1.0038622      0.99310985     7.5454644     -2612.7955     -4120.0945      1507.2991     -4120.0945     -5418.7988     -303.26545      1601.9697      5744.2693
    426000   0.99647541     0.98332839     7.3735584     -2663.2111     -4159.4189      1496.2078     -4159.4189     -5419.7491     -299.23623      1559.5665      5503.4573
    427000   1.000954       1.0116659      7.9061443     -2563.0848     -4066.0172      1502.9324     -4066.0172     -5441.1077     -299.38686      1674.4774      6193.455
    428000   1.0303069      1.0269528      7.6477536     -2556.8075     -4103.8133      1547.0058     -4103.8133     -5420.8855     -300.8419       1617.9141      5913.5489
    429000   0.96130247     0.98349514     7.2465291     -2775.8896     -4219.2852      1443.3957     -4219.2852     -5476.7872     -301.7229       1559.2248      5250.086
    430000   0.96786316     0.99404164     7.5871671     -2697.4653     -4150.7118      1453.2465     -4150.7118     -5471.6867     -297.32195      1618.2968      5705.7878
    431000   0.99406184     1.0074093      7.0332206     -2702.7922     -4195.376       1492.5839     -4195.376      -5394.8028     -299.29296      1498.7198      5086.9312
    432000   0.95002809     0.95455543     7.3154182     -2704.0668     -4130.5339      1426.4672     -4130.5339     -5383.0936     -301.16393      1553.7236      5398.2078
    433000   1.0267702      0.99366138     7.4803911     -2616.671      -4158.3665      1541.6955     -4158.3665     -5440.4522     -302.6033       1584.689       5668.3211
    434000   1.0116232      1.0004542      7.8356255     -2592.1406     -4111.0928      1518.9522     -4111.0928     -5478.3252     -295.10639      1662.3388      6086.2955
    435000   0.99131328     1.0019416      7.6852581     -2643.3274     -4131.7843      1488.4569     -4131.7843     -5453.8814     -301.13188      1623.229       5868.5674
    436000   1.0349726      1.007582       7.4481458     -2553.2825     -4107.2938      1554.0114     -4107.2938     -5375.3695     -300.29532      1568.371       5695.9959
    437000   0.99350774     1.006353       7.2146742     -2713.5897     -4205.3416      1491.7519     -4205.3416     -5455.7729     -298.61464      1549.046       5277.1046
    438000   0.99357088     0.99266348     7.4384818     -2693.8194     -4185.6661      1491.8467     -4185.6661     -5468.8964     -300.24941      1583.4798      5544.7556
    439000   0.96308185     0.9527906      7.5150201     -2656.3059     -4102.3733      1446.0674     -4102.3733     -5399.7653     -299.07253      1596.4646      5667.04
    440000   1.0368099      1.0149705      7.3497356     -2651.2296     -4207.9997      1556.7701     -4207.9997     -5466.5288     -302.03097      1560.5601      5489.0535
    441000   0.97620468     0.96853788     7.3797352     -2628.6593     -4094.4306      1465.7713     -4094.4306     -5362.2974     -301.52416      1569.391       5544.8502
    442000   1.0317038      1.0040085      7.6233615     -2565.9945     -4115.0978      1549.1033     -4115.0978     -5415.6387     -299.80658      1600.3475      5877.346
    443000   1.0147443      1.023523       7.2566009     -2681.5371     -4205.1756      1523.6385     -4205.1756     -5448.8933     -297.54008      1541.2578      5355.5937
    444000   0.99675661     0.98611657     7.214448      -2656.9383     -4153.5683      1496.63       -4153.5683     -5396.8669     -300.56222      1543.8608      5333.5055
    445000   0.97353318     0.99479764     7.4951446     -2605.4752     -4067.2352      1461.7601     -4067.2352     -5343.0392     -298.51319      1574.3171      5695.8573
    446000   1.0058962      1.0029453      7.3842776     -2607.3602     -4117.7133      1510.3531     -4117.7133     -5377.7362     -303.05984      1563.0827      5571.1803
    447000   1.0302724      1.0253524      7.3027172     -2662.7747     -4209.7287      1546.954      -4209.7287     -5472.3985     -303.29197      1565.9618      5425.4327
    448000   1.0378414      1.0362909      7.7191931     -2533.8626     -4092.1815      1558.3189     -4092.1815     -5422.1556     -301.96785      1631.9419      6015.6173
    449000   0.99723745     0.99507265     7.2037375     -2684.0011     -4181.3531      1497.352      -4181.3531     -5411.7006     -300.20126      1530.5488      5294.5802
    450000   1.0469425      1.0108318      7.6609105     -2470.5954     -4042.5796      1571.9841     -4042.5796     -5345.3875     -301.73305      1604.541       6014.333
    451000   0.97741076     1.0163597      7.3724217     -2725.2295     -4192.8117      1467.5823     -4192.8117     -5472.8694     -297.98323      1578.0409      5440.1799
    452000   1.0288914      1.0008448      7.6576073     -2526.1115     -4070.9919      1544.8804     -4070.9919     -5374.2474     -298.85671      1602.1122      5955.1584
    453000   0.99241199     0.99907238     7.7051883     -2610.8552     -4100.9618      1490.1066     -4100.9618     -5429.2801     -300.54513      1628.8634      5923.1136
    454000   0.99661423     1.0098705      7.5429615     -2528.2855     -4024.7017      1496.4163     -4024.7017     -5309.6387     -295.64004      1580.577       5826.0071
    455000   1.0680466      1.0573042      7.5227734     -2544.5103     -4148.1822      1603.6719     -4148.1822     -5439.173      -301.28812      1592.2789      5787.4228
    456000   0.98997416     0.99185146     7.3226763     -2662.6345     -4149.0807      1486.4462     -4149.0807     -5408.8786     -296.65665      1556.4546      5447.6788
    457000   1.0152174      1.0167286      7.1709713     -2677.2035     -4201.5525      1524.349      -4201.5525     -5426.843      -302.02283      1527.3133      5265.0872
    458000   0.98638521     1.0147135      7.5258341     -2553.0369     -4034.0943      1481.0574     -4034.0943     -5333.8022     -300.02867      1599.7365      5782.2861
    459000   0.98902101     1.0149139      7.4338313     -2663.2533     -4148.2684      1485.0151     -4148.2684     -5436.914      -300.36677      1589.0124      5570.1709
    460000   0.98427384     1.0095783      7.3617339     -2687.8273     -4165.7145      1477.8872     -4165.7145     -5441.8333     -298.91406      1575.0329      5465.7447
    461000   1.0237173      0.98634487     7.3164699     -2654.1838     -4191.2954      1537.1116     -4191.2954     -5450.0938     -302.46375      1561.2621      5449.2555
    462000   1.0303195      1.0267791      7.2580108     -2681.9344     -4228.9591      1547.0247     -4228.9591     -5479.6114     -299.98394      1550.6363      5356.7579
    463000   0.99857587     1.0030272      7.4335631     -2668.6354     -4167.9971      1499.3617     -4167.9971     -5455.9813     -301.47844      1589.4627      5564.4918
    464000   1.0036314      1.0060433      7.4487303     -2583.6079     -4090.5604      1506.9525     -4090.5604     -5362.6635     -303.77652      1575.8797      5666.318
    465000   1.0260519      0.99641075     7.2065312     -2706.7964     -4247.4133      1540.617      -4247.4133     -5483.4266     -299.16108      1535.1744      5274.8791
    466000   0.99370577     1.0235829      7.3825236     -2585.5553     -4077.6045      1492.0492     -4077.6045     -5333.8296     -299.57349      1555.7986      5591.0425
    467000   1.0493308      1.0370187      7.7489236     -2557.2036     -4132.7738      1575.5702     -4132.7738     -5455.6619     -302.31316      1625.2013      6025.2047
    468000   0.97640126     0.98001987     7.3924182     -2672.0068     -4138.0733      1466.0665     -4138.0733     -5415.0947     -299.55314      1576.5746      5515.5499
    469000   1.0350619      1.0101662      7.444803      -2610.7846     -4164.9299      1554.1454     -4164.9299     -5445.1041     -301.9301       1582.1043      5634.7916
    470000   0.98874284     0.99836845     7.1146444     -2691.4374     -4176.0347      1484.5974     -4176.0347     -5385.3442     -294.35047      1503.66        5188.4678
    471000   0.9658127      0.9930303      7.1811837     -2660.9652     -4111.1329      1450.1678     -4111.1329     -5337.3251     -304.9204       1531.1126      5292.6364
    472000   0.97407163     0.97892012     7.2595246     -2702.2682     -4164.8368      1462.5686     -4164.8368     -5397.5871     -304.66845      1537.4188      5338.1007
    473000   1.0148894      0.9933198      7.5251459     -2612.8006     -4136.6571      1523.8565     -4136.6571     -5431.2167     -301.56447      1596.1241      5721.7602
    474000   0.97415003     0.99155947     7.5815392     -2677.389      -4140.0753      1462.6863     -4140.0753     -5466.0229     -300.3607       1626.3083      5719.6308
    475000   1.0359371      1.0040307      7.2699235     -2611.6065     -4167.0661      1555.4596     -4167.0661     -5402.0216     -296.88628      1531.8418      5440.2798
    476000   0.98335843     0.99833895     7.9009125     -2605.8412     -4082.3538      1476.5127     -4082.3538     -5453.066      -302.33462      1673.0468      6144.9042
    477000   1.0172951      0.98824876     7.4995773     -2611.9993     -4139.4678      1527.4686     -4139.4678     -5423.3919     -297.94833      1581.8724      5694.2427
    478000   0.97311274     0.98604948     7.365114      -2679.0622     -4140.191       1461.1288     -4140.191      -5425.0367     -298.71975      1583.5655      5478.2535
    479000   1.0280335      1.0028501      7.6573817     -2584.235      -4127.8273      1543.5924     -4127.8273     -5444.0233     -298.46647      1614.6624      5896.7851
    480000   1.0062775      0.98436782     7.4722084     -2624.8096     -4135.7352      1510.9257     -4135.7352     -5408.7063     -301.53504      1574.506       5651.1197
    481000   1.014996       1.0075544      7.4222065     -2642.7214     -4166.7379      1524.0165     -4166.7379     -5446.1316     -299.90723      1579.3009      5577.8277
    482000   0.98646998     0.99239484     7.4238969     -2665.7182     -4146.9029      1481.1847     -4146.9029     -5430.3829     -298.07095      1581.551       5556.7031
    483000   0.98238315     1.0206216      7.5576458     -2636.8301     -4111.8784      1475.0483     -4111.8784     -5417.127      -297.34287      1602.5915      5733.7263
    484000   0.99375167     1.0191547      7.3621082     -2701.7171     -4193.8353      1492.1181     -4193.8353     -5460.4926     -301.25006      1567.9074      5452.2694
    485000   0.99218476     1.0169162      7.3207817     -2655.863      -4145.6284      1489.7654     -4145.6284     -5414.695      -297.63326      1566.6998      5452.352
    486000   1.0231913      0.99771912     7.4513168     -2570.6059     -4106.9276      1536.3217     -4106.9276     -5376.2043     -302.22795      1571.5046      5682.1846
    487000   1.0059428      1.0110096      7.6067659     -2669.1652     -4179.5884      1510.4232     -4179.5884     -5496.0874     -299.98636      1616.4854      5755.7947
    488000   1.0222531      1.023181       7.4242892     -2594.3116     -4129.2246      1534.913      -4129.2246     -5409.2001     -301.56681      1581.5423      5628.5441
    489000   1.0219958      0.98182143     7.0785125     -2685.1794     -4219.7062      1534.5268     -4219.7062     -5444.8258     -291.12149      1516.2411      5154.7075
    490000   1.0306015      1.0203996      7.6581453     -2567.4048     -4114.8529      1547.4481     -4114.8529     -5437.4121     -298.39138      1620.9505      5914.4609
    491000   0.98679921     1.0138543      7.4296401     -2660.7654     -4142.4444      1481.679      -4142.4444     -5407.7741     -303.09715      1568.4268      5568.0168
    492000   1.0016118      0.97954865     7.4353995     -2608.5186     -4112.4387      1503.9201     -4112.4387     -5390.4365     -295.64533      1573.6431      5626.6425
    493000   0.96552141     0.9954594      7.3448206     -2715.2568     -4164.9872      1449.7304     -4164.9872     -5440.098      -301.4246       1576.5353      5419.5827
    494000   0.96234449     0.97344081     7.0383477     -2751.0682     -4196.0285      1444.9603     -4196.0285     -5400.9401     -299.37448      1504.2862      5044.3337
    495000   1.0448002      1.0006084      7.3529131     -2521.3405     -4090.1081      1568.7675     -4090.1081     -5344.4855     -301.23465      1555.612       5622.4619
    496000   0.94213456     1.0047932      7.1542192     -2740.3014     -4154.9164      1414.615      -4154.9164     -5385.9418     -305.11494      1536.1403      5183.4353
    497000   1.0445707      1.0318827      7.3465342     -2561.5757     -4129.9985      1568.4229     -4129.9985     -5388.203      -300.4673       1558.6718      5575.1617
    498000   1.0129792      0.99885129     7.4633959     -2611.593      -4132.5814      1520.9883     -4132.5814     -5412.2539     -301.25215      1580.9247      5654.5758
    499000   1.0369975      1.0096639      7.4059725     -2623.3658     -4180.4175      1557.0517     -4180.4175     -5455.896      -298.41158      1573.8901      5579.2031
    500000   1.0368153      1.0105932      7.6036089     -2619.0214     -4175.7996      1556.7782     -4175.7996     -5483.9107     -299.03769      1607.1488      5802.4419
colvars: Saving collective variables state to "prod.colvars.state".
Loop time of 6125.52 on 1 procs for 500000 steps with 1002 atoms

Performance: 35262.290 tau/day, 81.626 timesteps/s
100.0% CPU use with 1 MPI tasks x 1 OpenMP threads

MPI task timing breakdown:
Section |  min time  |  avg time  |  max time  |%varavg| %total
---------------------------------------------------------------
Pair    | 38.712     | 38.712     | 38.712     |   0.0 |  0.63
Kspace  | 5948.4     | 5948.4     | 5948.4     |   0.0 | 97.11
Neigh   | 0.073269   | 0.073269   | 0.073269   |   0.0 |  0.00
Comm    | 80.124     | 80.124     | 80.124     |   0.0 |  1.31
Output  | 0.071676   | 0.071676   | 0.071676   |   0.0 |  0.00
Modify  | 51.618     | 51.618     | 51.618     |   0.0 |  0.84
Other   |            | 6.552      |            |       |  0.11

Nlocal:           1002 ave        1002 max        1002 min
Histogram: 1 0 0 0 0 0 0 0 0 0
Nghost:           7660 ave        7660 max        7660 min
Histogram: 1 0 0 0 0 0 0 0 0 0
Neighs:              0 ave           0 max           0 min
Histogram: 1 0 0 0 0 0 0 0 0 0

Total # of neighbors = 0
Ave neighs/atom = 0
Neighbor list builds = 47055
Dangerous builds = 0

undump         1
unfix          1
unfix          2
unfix          3
Total wall time: 3:45:31
