LAMMPS (3 Aug 2022)
OMP_NUM_THREADS environment is not set. Defaulting to 1 thread. (../comm.cpp:98)
  using 1 OpenMP thread(s) per MPI task
package gpu 0
package gpu 1
#=======================================
# Symmetric Ions in Stockmayer Fluid (water dipole)
#   Created by Chris Balzer (balzer@caltech.edu)
#   See README.md for description
#==================================

#======
# Parameters
#======
# Initialize the system set up
units		      lj
boundary	    p p p
atom_style	  hybrid dipole sphere
WARNING: Atom style hybrid defines both, per-type and per-atom masses; both must be set, but only per-atom masses will be used (../atom_vec_hybrid.cpp:133)
atom_modify   map yes

# Read in input data
read_data	    system.data
Reading data file ...
  orthogonal box = (0 0 0) to (10.3464 10.3464 10.3464)
  1 by 1 by 1 MPI processor grid
  reading atoms ...
  1002 atoms
  read_data CPU = 0.001 seconds

# Group atoms
group         solvent  type 1
1000 atoms in group solvent
group         ions     type 2 3
2 atoms in group ions
group         anion    type 2
1 atoms in group anion
group         cation   type 3
1 atoms in group cation
group2ndx     groups.ndx cation anion
Writing groups to index file groups.ndx:
 writing group cation...done
 writing group anion...done

# Set mass and diameter of spheres
set type      1 mass 1.0 # solvent
Setting atom values ...
  1000 settings made for mass
set type      2 mass 1.0 # anion
Setting atom values ...
  1 settings made for mass
set type      3 mass 1.0 # cation
Setting atom values ...
  1 settings made for mass
set type      1 diameter 1.0 # solvent
Setting atom values ...
  1000 settings made for diameter
set type      2 diameter 1.0 # anion
Setting atom values ...
  1 settings made for diameter
set type      3 diameter 1.0 # cation
Setting atom values ...
  1 settings made for diameter

# Set charge of ions
set type      2 charge -13.626 # anion
Setting atom values ...
  1 settings made for charge
set type      3 charge  13.626 # cation
Setting atom values ...
  1 settings made for charge

# Non-bonded interactions
pair_style	  lj/cut/dipole/long 1.12246204831 5.06974
pair_coeff	  1 1 1.0 1.0 # solvent
pair_coeff	  2 2 1.0 1.0 # anion
pair_coeff	  3 3 1.0 1.0 # cation
kspace_style  ewald/disp 1e-4
pair_modify   shift yes mix geometric

# Set dipole
set group solvent dipole/random 4321 1.7494
Setting atom values ...
  1000 settings made for dipole/random

# Neighbor settings
neighbor	    0.4 bin
neigh_modify every 1 delay 0 one 10000

# Temperature computation
compute tempSph all  temp/sphere

#####################################################
# Minimization
minimize 0.0 1.0e-8 100000 100000

CITE-CITE-CITE-CITE-CITE-CITE-CITE-CITE-CITE-CITE-CITE-CITE-CITE

Your simulation uses code contributions which should be cited:

- GPU package (short-range, long-range and three-body potentials):

@Article{Brown11,
 author = {W. M. Brown, P. Wang, S. J. Plimpton, A. N. Tharrington},
 title = {Implementing Molecular Dynamics on Hybrid High Performance Computers - Short Range Forces},
 journal = {Comp.~Phys.~Comm.},
 year =    2011,
 volume =  182,
 pages =   {898--911}
}

@Article{Brown12,
 author = {W. M. Brown, A. Kohlmeyer, S. J. Plimpton, A. N. Tharrington},
 title = {Implementing Molecular Dynamics on Hybrid High Performance Computers - Particle-Particle Particle-Mesh},
 journal = {Comp.~Phys.~Comm.},
 year =    2012,
 volume =  183,
 pages =   {449--459}
}

@Article{Brown13,
 author = {W. M. Brown, Y. Masako},
 title = {Implementing Molecular Dynamics on Hybrid High Performance Computers â€“ Three-Body Potentials},
 journal = {Comp.~Phys.~Comm.},
 year =    2013,
 volume =  184,
 pages =   {2785--2793}
}

@Article{Trung15,
 author = {T. D. Nguyen, S. J. Plimpton},
 title = {Accelerating dissipative particle dynamics simulations for soft matter systems},
 journal = {Comput.~Mater.~Sci.},
 year =    2015,
 volume =  100,
 pages =   {173--180}
}

@Article{Trung17,
 author = {T. D. Nguyen},
 title = {GPU-accelerated Tersoff potentials for massively parallel Molecular Dynamics simulations},
 journal = {Comp.~Phys.~Comm.},
 year =    2017,
 volume =  212,
 pages =   {113--122}
}

@Article{Nikolskiy19,
 author = {V. Nikolskiy, V. Stegailov},
 title = {GPU acceleration of four-site water models in LAMMPS},
 journal = {Proceeding of the International Conference on Parallel Computing (ParCo 2019), Prague, Czech Republic},
 year =    2019
}

CITE-CITE-CITE-CITE-CITE-CITE-CITE-CITE-CITE-CITE-CITE-CITE-CITE

EwaldDisp initialization ...
Generated 3 of 3 mixed pair_coeff terms from geometric mixing rule
  G vector = 0.55961375,   accuracy = 0.0001
Generated 3 of 3 mixed pair_coeff terms from geometric mixing rule
Neighbor list info ...
  update every 1 steps, delay 0 steps, check yes
  max neighbors/atom: 10000, page size: 100000
  master list distance cutoff = 5.46974
  ghost atom cutoff = 5.46974
  binsize = 2.73487, bins = 4 4 4
  0 neighbor lists, perpetual/occasional/extra = 0 0 0
  vectors: nbox = 7, nkvec = 709
Per MPI rank memory allocation (min/avg/max) = 18.02 | 18.02 | 18.02 Mbytes
   Step          Temp          E_pair         E_mol          TotEng         Press     
         0   0              1.2114127      0              1.2114127      11.106432    
      4147   0             -5.5057953      0             -5.5057953      2.1125349    
Loop time of 110.662 on 1 procs for 4147 steps with 1002 atoms

100.0% CPU use with 1 MPI tasks x 1 OpenMP threads

Minimization stats:
  Stopping criterion = linesearch alpha is zero
  Energy initial, next-to-last, final = 
      1.21141271045144  -5.50579534736424  -5.50579534736424
  Force two-norm initial, final = 1095.6381 0.7458484
  Force max component initial, final = 76.684701 0.14927529
  Final line search alpha, max atom move = 2.0443824e-05 3.0517578e-06
  Iterations, force evaluations = 4147 9651

MPI task timing breakdown:
Section |  min time  |  avg time  |  max time  |%varavg| %total
---------------------------------------------------------------
Pair    | 0.49686    | 0.49686    | 0.49686    |   0.0 |  0.45
Kspace  | 108.92     | 108.92     | 108.92     |   0.0 | 98.42
Neigh   | 0.001046   | 0.001046   | 0.001046   |   0.0 |  0.00
Comm    | 1.0583     | 1.0583     | 1.0583     |   0.0 |  0.96
Output  | 0          | 0          | 0          |   0.0 |  0.00
Modify  | 0.00033701 | 0.00033701 | 0.00033701 |   0.0 |  0.00
Other   |            | 0.1868     |            |       |  0.17

Nlocal:           1002 ave        1002 max        1002 min
Histogram: 1 0 0 0 0 0 0 0 0 0
Nghost:           7748 ave        7748 max        7748 min
Histogram: 1 0 0 0 0 0 0 0 0 0
Neighs:              0 ave           0 max           0 min
Histogram: 1 0 0 0 0 0 0 0 0 0

Total # of neighbors = 0
Ave neighs/atom = 0
Neighbor list builds = 654
Dangerous builds = 0
reset_timestep 0

#####################################################
# Initialization (NVT Sphere with spring)

velocity       all create 1.0 4928459
fix		         1 all nve/sphere update dipole
fix            2 all langevin 1.0 1.0 1.0 214323 omega yes
fix            3 ions recenter 0.5 0.5 0.5 units fraction shift all
fix            4 cation spring couple anion 50.0 0.0 0.0 0.0 1.25

thermo		     1000
thermo_style	 custom step temp c_tempSph press etotal pe ke epair ecoul elong evdwl enthalpy
thermo_modify  norm no
dump	       	 1 all custom 10000 dump.dipoleInit id type x y z q mux muy muz

timestep	     0.005
run		         100000
EwaldDisp initialization ...
Generated 3 of 3 mixed pair_coeff terms from geometric mixing rule
  G vector = 0.55961375,   accuracy = 0.0001
Generated 3 of 3 mixed pair_coeff terms from geometric mixing rule
Per MPI rank memory allocation (min/avg/max) = 18.21 | 18.21 | 18.21 Mbytes
   Step          Temp        c_tempSph        Press          TotEng         PotEng         KinEng         E_pair         E_coul         E_long         E_vdwl        Enthalpy   
         0   1              0.49975037     3.0163223     -4015.3069     -5516.8069      1501.5        -5516.8069     -5975.2052     -291.04978      749.44807     -674.54493    
      1000   1.0007997      1.004552       7.2128968     -2673.3311     -4176.0319      1502.7007     -4176.0319     -5402.7104     -299.72058      1526.3991      5315.3946    
      2000   1.0023181      1.0072399      7.2628901     -2653.6061     -4158.5867      1504.9806     -4158.5867     -5410.3538     -300.9162       1552.6833      5390.4903    
      3000   1.0148132      1.0123923      7.5970427     -2606.0138     -4129.7559      1523.742      -4129.7559     -5439.7511     -300.25479      1610.2501      5808.177     
      4000   1.0322079      1.0176034      7.0258566     -2635.2836     -4185.1438      1549.8602     -4185.1438     -5375.6346     -298.58866      1489.0795      5146.2836    
      5000   0.99457496     0.99944137     7.6408524     -2684.4278     -4177.7821      1493.3543     -4177.7821     -5499.4112     -303.26568      1624.8947      5778.2851    
      6000   1.0170186      1.0290108      7.546068      -2586.5606     -4113.6141      1527.0535     -4113.6141     -5398.9237     -303.69074      1589.0004      5771.1727    
      7000   0.98739885     0.99383232     6.8440716     -2713.6218     -4196.2012      1482.5794     -4196.2012     -5377.2977     -298.00781      1479.1043      4866.6073    
      8000   1.01751        1.0113189      7.7482703     -2579.4049     -4107.1962      1527.7913     -4107.1962     -5449.5255     -299.02417      1641.3535      6002.2798    
      9000   0.97120919     0.97767528     7.529282      -2717.762      -4176.0326      1458.2706     -4176.0326     -5484.7722     -298.5546       1607.2941      5621.3797    
     10000   0.93801511     0.97506169     7.2932237     -2748.4584     -4156.8881      1408.4297     -4156.8881     -5424.4405     -295.0459       1562.5983      5329.2343    
     11000   0.96948439     0.98911342     7.4665401     -2725.0192     -4180.7         1455.6808     -4180.7        -5474.2112     -303.83792      1597.3492      5544.6321    
     12000   0.9937223      0.97765006     7.159292      -2698.0922     -4190.1662      1492.074      -4190.1662     -5418.2079     -302.93261      1530.9743      5231.263     
     13000   0.99171445     0.99555097     7.5295203     -2636.151      -4125.2102      1489.0592     -4125.2102     -5431.2604     -304.24788      1610.298       5703.2547    
     14000   0.98384097     0.99013921     7.3008586     -2731.581      -4208.8182      1477.2372     -4208.8182     -5473.0438     -302.37527      1566.6009      5354.5679    
     15000   1.0134269      1.0255082      7.6885644     -2639.2444     -4160.9049      1521.6605     -4160.9049     -5485.4549     -300.87914      1625.4291      5876.3124    
     16000   0.991267       0.98279432     7.1057246     -2717.5922     -4205.9796      1488.3874     -4205.9796     -5431.99       -301.60905      1527.6194      5152.4337    
     17000   1.0142904      1.0173138      7.7559787     -2522.2944     -4045.2514      1522.957      -4045.2514     -5376.7124     -296.30703      1627.768       6067.9279    
     18000   1.0346845      0.99884178     7.4585868     -2614.0161     -4167.5949      1553.5788     -4167.5949     -5448.8612     -299.05306      1580.3194      5646.8264    
     19000   0.95759143     1.0130307      7.4947441     -2655.4407     -4093.2643      1437.8235     -4093.2643     -5385.9232     -301.84701      1594.506       5645.4482    
     20000   1.0504923      1.0405219      7.1520262     -2630.6702     -4207.9844      1577.3141     -4207.9844     -5422.4288     -300.69143      1515.1359      5290.6377    
     21000   1.0154472      1.0189526      7.3284985     -2680.0016     -4204.6956      1524.694      -4204.6956     -5455.7053     -301.2509       1552.2606      5436.7601    
     22000   0.99091631     0.99683487     7.3873188     -2639.1229     -4126.9837      1487.8608     -4126.9837     -5388.2119     -302.78663      1564.0148      5542.7859    
     23000   0.98199933     0.98544326     7.5362238     -2629.9027     -4104.3747      1474.472      -4104.3747     -5395.8188     -301.27198      1592.7161      5716.9275    
     24000   0.95972315     1.001251       7.5720911     -2670.6414     -4111.6657      1441.0243     -4111.6657     -5411.2812     -302.45421      1602.0697      5715.9141    
     25000   1.0049687      1.0067513      7.501946      -2525.4308     -4034.3913      1508.9605     -4034.3913     -5302.3758     -302.52397      1570.5085      5783.4347    
     26000   1.0121579      1.0258159      7.5756405     -2621.0571     -4140.8122      1519.7551     -4140.8122     -5457.1871     -299.0128       1615.3877      5769.4295    
     27000   0.98787363     0.9913684      7.0460055     -2656.3213     -4139.6135      1483.2923     -4139.6135     -5342.4811     -300.79256      1503.6601      5147.5621    
     28000   1.0337305      1.0185281      7.1716316     -2642.7795     -4194.9258      1552.1463     -4194.9258     -5420.7925     -299.8901       1525.7568      5300.2425    
     29000   0.98187266     0.97686515     7.7526449     -2660.7974     -4135.0792      1474.2818     -4135.0792     -5482.7849     -300.80203      1648.5078      5925.7326    
     30000   0.9924151      0.99068476     7.4886849     -2622.6479     -4112.7592      1490.1113     -4112.7592     -5412.4745     -296.96668      1596.682       5671.5301    
     31000   0.98995331     0.99465601     7.1167842     -2678.7037     -4165.1186      1486.4149     -4165.1186     -5373.8476     -299.68583      1508.4148      5203.5715    
     32000   0.98679811     0.98527775     7.7813832     -2630.4389     -4112.1162      1481.6774     -4112.1162     -5455.5578     -299.61274      1643.0543      5987.9204    
     33000   0.98762227     1.0130513      7.6871359     -2636.4511     -4119.3659      1482.9148     -4119.3659     -5444.5167     -296.91945      1622.0702      5877.5235    
     34000   0.98721047     0.98693868     7.4657576     -2587.942      -4070.2385      1482.2965     -4070.2385     -5352.7032     -299.64198      1582.1067      5680.8426    
     35000   1.0052395      0.99824507     7.2789485     -2714.5394     -4223.9066      1509.3671     -4223.9066     -5484.49       -302.20565      1562.7891      5347.3426    
     36000   1.0154665      1.0013737      7.734562      -2519.1365     -4043.8595      1524.723      -4043.8595     -5366.435      -299.2951       1621.8707      6047.3654    
     37000   0.98469633     1.0050572      7.1514471     -2764.9961     -4243.5177      1478.5215     -4243.5177     -5465.4956     -299.92118      1521.8992      5155.6703    
     38000   1.0275717      1.0328433      7.6277729     -2562.8022     -4105.7011      1542.8989     -4105.7011     -5415.7696     -301.11044      1611.1789      5885.4242    
     39000   0.99004258     1.0066873      7.5324413     -2658.8191     -4145.3681      1486.5489     -4145.3681     -5457.8465     -301.30586      1613.7843      5683.8218    
     40000   0.98980658     0.9805215      7.3093118     -2686.6894     -4172.8839      1486.1946     -4172.8839     -5434.6719     -300.22022      1562.0081      5408.8219    
     41000   1.0503019      1.0225735      7.436278      -2561.1373     -4138.1656      1577.0283     -4138.1656     -5396.795      -299.13483      1557.7642      5674.9969    
     42000   1.01237        1.0025689      7.3298596     -2702.3578     -4222.4314      1520.0736     -4222.4314     -5504.5006     -299.96531      1582.0345      5415.9114    
     43000   1.0314786      1.0128989      7.1609761     -2652.8014     -4201.5665      1548.7651     -4201.5665     -5431.5156     -300.02678      1529.9759      5278.4191    
     44000   0.96483216     0.97767624     7.3789983     -2688.6271     -4137.3226      1448.6955     -4137.3226     -5405.6545     -301.31706      1569.6489      5484.0662    
     45000   1.0602216      1.0348599      7.4678229     -2576.9019     -4168.8246      1591.9227     -4168.8246     -5442.3575     -301.85171      1575.3846      5694.1701    
     46000   0.97359348     0.97167478     7.6485127     -2595.779      -4057.6296      1461.8506     -4057.6296     -5384.6965     -300.44868      1627.5155      5875.4181    
     47000   1.003506       0.99867641     7.192726      -2728.3945     -4235.1587      1506.7643     -4235.1587     -5469.0427     -301.03183      1534.9158      5237.9909    
     48000   0.99285855     0.99852735     7.1869168     -2665.262      -4156.0391      1490.7771     -4156.0391     -5378.9662     -305.48309      1528.4102      5294.6893    
     49000   0.99544131     0.98390113     7.5709189     -2670.7609     -4165.416       1494.6551     -4165.416      -5467.0181     -305.32073      1606.9229      5714.4963    
     50000   0.95802967     1.0000373      7.3615486     -2722.6123     -4161.0939      1438.4816     -4161.0939     -5434.7185     -300.18618      1573.8108      5430.7544    
     51000   0.97630651     0.99916876     7.5347442     -2719.4259     -4185.3501      1465.9242     -4185.3501     -5491.2606     -303.53269      1609.4431      5625.7656    
     52000   1.0146498      1.0288707      7.1579064     -2654.235      -4177.7317      1523.4967     -4177.7317     -5397.0577     -299.8373       1519.1634      5273.5855    
     53000   0.98561848     1.0104378      7.3478709     -2679.0433     -4158.9494      1479.9061     -4158.9494     -5431.3667     -301.91529      1574.3326      5459.1745    
     54000   1.0149996      1.0064975      7.3747912     -2617.9008     -4141.9227      1524.0219     -4141.9227     -5413.0617     -297.97413      1569.1131      5550.133     
     55000   1.0136848      1.0129167      7.5664715     -2622.9401     -4144.9878      1522.0477     -4144.9878     -5443.3364     -298.90346      1597.2521      5757.3913    
     56000   0.97198825     0.97041224     7.5691917     -2628.8816     -4088.322       1459.4404     -4088.322      -5384.2484     -301.12747      1597.0539      5754.4626    
     57000   0.99145254     1.0054555      7.6584297     -2582.4782     -4071.1442      1488.666      -4071.1442     -5379.6912     -298.46247      1607.0094      5899.7026    
     58000   1.0107826      1.000544       7.4731059     -2601.4294     -4119.1195      1517.6901     -4119.1195     -5393.8379     -298.7461       1573.4645      5675.4939    
     59000   0.96763762     0.95835953     7.4511332     -2701.8468     -4154.7547      1452.9079     -4154.7547     -5443.9541     -302.71588      1591.9153      5550.7403    
     60000   1.039655       1.0334358      7.2304982     -2636.8699     -4197.9118      1561.042      -4197.9118     -5438.1626     -302.12264      1542.3735      5371.3506    
     61000   0.99591474     0.98317315     7.9796168     -2596.0771     -4091.4431      1495.366      -4091.4431     -5473.551      -301.19032      1683.2982      6241.838     
     62000   0.99111952     1.0057698      7.4866614     -2725.2259     -4213.3918      1488.166      -4213.3918     -5512.7979     -302.13517      1601.5412      5566.711     
     63000   1.0106087      0.99115818     7.5134698     -2631.2163     -4148.6453      1517.429      -4148.6453     -5451.9556     -302.88444      1606.1948      5690.4125    
     64000   0.95970916     0.9876034      7.3409892     -2795.465      -4236.4683      1441.0033     -4236.4683     -5517.1285     -302.1215       1582.7817      5335.1309    
     65000   1.0313111      1.0079026      7.4596515     -2654.8838     -4203.3974      1548.5137     -4203.3974     -5489.4963     -298.40414      1584.503       5607.1379    
     66000   0.99373625     0.99309813     7.6229425     -2647.3301     -4139.4251      1492.095      -4139.4251     -5470.1381     -299.43484      1630.1479      5795.5464    
     67000   0.97943431     0.95868621     7.7342807     -2619.1602     -4089.7808      1470.6206     -4089.7808     -5420.1736     -302.61422      1633.007       5947.0302    
     68000   0.9707118      0.97565564     7.8272285     -2683.5459     -4141.0696      1457.5238     -4141.0696     -5512.0152     -298.39923      1669.3448      5985.59      
     69000   1.0036949      0.99237929     7.1224023     -2665.351      -4172.3989      1507.0479     -4172.3989     -5384.4905     -297.48371      1509.5753      5223.1465    
     70000   0.99327337     0.99865241     7.6942854     -2568.0714     -4059.4714      1491.4        -4059.4714     -5394.0173     -300.18729      1634.7332      5953.8218    
     71000   0.97086546     0.98834222     7.4365239     -2595.3062     -4053.0606      1457.7545     -4053.0606     -5317.6211     -297.57993      1562.1404      5641.1003    
     72000   0.99656975     1.0063281      7.3696891     -2659.87       -4156.2194      1496.3495     -4156.2194     -5444.0538     -294.03557      1581.87        5502.5129    
     73000   1.0322766      1.0177387      7.6060475     -2577.1782     -4127.1416      1549.9634     -4127.1416     -5423.5953     -302.83855      1599.2923      5846.986     
     74000   1.015898       1.0186325      7.0902073     -2759.1658     -4284.5366      1525.3709     -4284.5366     -5518.7087     -300.6189       1534.7909      5093.6739    
     75000   1.0545118      1.0149793      7.4247164     -2647.8119     -4231.1613      1583.3494     -4231.1613     -5491.0712     -304.51893      1564.4288      5575.517     
     76000   0.94727507     0.99869005     7.5459762     -2676.1043     -4098.4378      1422.3335     -4098.4378     -5415.0578     -300.71583      1617.3358      5681.5273    
     77000   1.0467212      1.0012724      7.4133991     -2533.9113     -4105.5632      1571.6519     -4105.5632     -5365.5191     -298.07726      1558.0332      5676.8831    
     78000   0.98286309     0.9696922      7.1696552     -2726.2674     -4202.0363      1475.7689     -4202.0363     -5424.1204     -302.16661      1524.2507      5214.5656    
     79000   1.0485538      1.036464       7.4738359     -2571.8979     -4146.3015      1574.4036     -4146.3015     -5423.873      -296.87763      1574.4492      5705.8339    
     80000   1.0092065      1.0167021      7.5818626     -2606.2111     -4121.5347      1515.3236     -4121.5347     -5429.5223     -299.20533      1607.1929      5791.1669    
     81000   1.0560376      1.0177154      7.4008065     -2576.1861     -4161.8266      1585.6405     -4161.8266     -5429.736      -303.11942      1571.0288      5620.6612    
     82000   0.95644844     0.96908801     7.4305954     -2714.5574     -4150.6647      1436.1073     -4150.6647     -5423.2517     -299.21809      1571.805       5515.2829    
     83000   1.0379935      1.0293104      7.3970911     -2594.2996     -4152.8469      1558.5473     -4152.8469     -5418.5959     -298.72534      1564.4744      5598.4327    
     84000   0.95337506     0.9706073      7.3151784     -2728.821      -4160.3136      1431.4927     -4160.3136     -5414.823      -298.54119      1553.0505      5373.1879    
     85000   0.97429792     0.98441401     7.4784556     -2710.3582     -4173.2665      1462.9083     -4173.2665     -5462.8709     -300.82594      1590.4304      5572.4903    
     86000   1.0182067      1.0069865      7.7750768     -2581.1883     -4110.0256      1528.8373     -4110.0256     -5452.6008     -300.3048       1642.88        6030.1863    
     87000   1.0474264      1.0148381      7.6357218     -2578.6262     -4151.3369      1572.7107     -4151.3369     -5463.4624     -299.44715      1611.5727      5878.4042    
     88000   0.95962603     0.96713708     7.3927518     -2694.2039     -4135.0824      1440.8785     -4135.0824     -5411.2126     -302.17303      1578.3032      5493.7223    
     89000   0.97293495     0.98587327     7.3939659     -2637.5227     -4098.3845      1460.8618     -4098.3845     -5364.3        -302.26831      1568.1838      5551.7482    
     90000   1.0227925      1.0150645      7.2620066     -2674.1513     -4209.8741      1535.7229     -4209.8741     -5447.7227     -303.48022      1541.3288      5368.9667    
     91000   0.98563446     0.97401512     7.5842094     -2674.5698     -4154.5         1479.9301     -4154.5        -5476.4157     -300.04148      1621.9572      5725.4074    
     92000   1.0023943      1.0046373      7.6325803     -2666.5865     -4171.6816      1505.0951     -4171.6816     -5500.5848     -305.0757       1633.9789      5786.9645    
     93000   1.0243195      1.011099       7.6437256     -2605.2285     -4143.2442      1538.0157     -4143.2442     -5455.6692     -302.03021      1614.4553      5860.6666    
     94000   0.98971208     0.9929452      7.3760657     -2663.8235     -4149.8762      1486.0527     -4149.8762     -5418.9584     -300.85428      1569.9364      5505.6218    
     95000   1.0022773      0.9805469      7.1525123     -2704.6636     -4209.5831      1504.9194     -4209.5831     -5434.1043     -300.73803      1525.2592      5217.1825    
     96000   0.98355497     0.97734346     7.1190444     -2706.4052     -4183.213       1476.8078     -4183.213      -5405.8697     -301.56553      1524.2222      5178.3732    
     97000   1.0001626      0.98575683     7.6489664     -2626.32       -4128.0642      1501.7442     -4128.0642     -5441.7525     -302.04938      1615.7377      5845.3796    
     98000   0.99811966     0.99023029     7.3290233     -2713.8914     -4212.5681      1498.6767     -4212.5681     -5488.5336     -303.5097       1579.4752      5403.4515    
     99000   0.97516844     0.97889247     7.3020631     -2725.7255     -4189.9409      1464.2154     -4189.9409     -5456.6267     -300.09753      1566.7834      5361.7574    
    100000   0.95350657     0.97432551     7.3944524     -2678.7631     -4110.4532      1431.6901     -4110.4532     -5384.0137     -296.79558      1570.3561      5511.0466    
Loop time of 1150.27 on 1 procs for 100000 steps with 1002 atoms

Performance: 37556.543 tau/day, 86.936 timesteps/s
100.0% CPU use with 1 MPI tasks x 1 OpenMP threads

MPI task timing breakdown:
Section |  min time  |  avg time  |  max time  |%varavg| %total
---------------------------------------------------------------
Pair    | 5.3517     | 5.3517     | 5.3517     |   0.0 |  0.47
Kspace  | 1124.6     | 1124.6     | 1124.6     |   0.0 | 97.77
Neigh   | 0.016023   | 0.016023   | 0.016023   |   0.0 |  0.00
Comm    | 11.322     | 11.322     | 11.322     |   0.0 |  0.98
Output  | 0.013914   | 0.013914   | 0.013914   |   0.0 |  0.00
Modify  | 7.9494     | 7.9494     | 7.9494     |   0.0 |  0.69
Other   |            | 1.013      |            |       |  0.09

Nlocal:           1002 ave        1002 max        1002 min
Histogram: 1 0 0 0 0 0 0 0 0 0
Nghost:           7650 ave        7650 max        7650 min
Histogram: 1 0 0 0 0 0 0 0 0 0
Neighs:              0 ave           0 max           0 min
Histogram: 1 0 0 0 0 0 0 0 0 0

Total # of neighbors = 0
Ave neighs/atom = 0
Neighbor list builds = 10804
Dangerous builds = 1

undump         1
unfix          1
unfix          2
unfix          3
unfix          4

#####################################################
# Equilibration (NVT Sphere with colvars)

fix		         1 all nve/sphere update dipole
fix            2 all langevin 1.0 1.0 1.0 214323 omega yes
fix            3 ions colvars input.colvars output equil

thermo		     1000
thermo_style	 custom step temp c_tempSph press etotal pe ke epair ecoul elong evdwl enthalpy
WARNING: New thermo_style command, previous thermo_modify settings will be lost (../output.cpp:903)
thermo_modify  norm no
dump	       	 1 all custom 10000 dump.dipoleEquil id type x y z q mux muy muz

timestep	     0.005
run		         500000
EwaldDisp initialization ...
Generated 3 of 3 mixed pair_coeff terms from geometric mixing rule
  G vector = 0.55961375,   accuracy = 0.0001
Generated 3 of 3 mixed pair_coeff terms from geometric mixing rule
colvars: Creating proxy instance
colvars: ----------------------------------------------------------------------
colvars: Initializing the collective variables module, version 2022-05-24.
colvars: Please cite Fiorin et al, Mol Phys 2013:
colvars:   https://doi.org/10.1080/00268976.2013.813594
colvars: as well as all other papers listed below for individual features used.
colvars: This version was built with the C++11 standard or higher.
colvars: Using LAMMPS interface, version "2022-05-09".
colvars: ----------------------------------------------------------------------
colvars: Reading new configuration from file "input.colvars":
colvars: # units = "" [default]
colvars: # indexFile = "groups.ndx"
colvars: The following index groups are currently defined:
colvars:   cation (1 atoms)
colvars:   anion (1 atoms)
colvars: # smp = on [default]
colvars: # colvarsTrajFrequency = 1000
colvars: # colvarsRestartFrequency = 0 [default]
colvars: # scriptedColvarForces = off [default]
colvars: # scriptingAfterBiases = off [default]
colvars: ----------------------------------------------------------------------
colvars:   Initializing a new collective variable.
colvars:   # name = "dist"
colvars:   Initializing a new "distance" component.
colvars:     # name = "" [default]
colvars:     # componentCoeff = 1 [default]
colvars:     # componentExp = 1 [default]
colvars:     # period = 0 [default]
colvars:     # wrapAround = 0 [default]
colvars:     # forceNoPBC = off [default]
colvars:     # scalable = on [default]
colvars:       Initializing atom group "group1".
colvars:       # name = "" [default]
colvars:       # centerToOrigin = off [default]
colvars:       # centerToReference = off [default]
colvars:       # rotateToReference = off [default]
colvars:       # atomsOfGroup = "" [default]
colvars:       # indexGroup = "cation"
colvars:       # psfSegID =  [default]
colvars:       # atomsFile = "" [default]
colvars:       # dummyAtom = ( 0 , 0 , 0 ) [default]
colvars:       # enableFitGradients = on [default]
colvars:       # printAtomIDs = off [default]
colvars:       Atom group "group1" defined with 1 atoms requested.
colvars:       Initializing atom group "group2".
colvars:       # name = "" [default]
colvars:       # centerToOrigin = off [default]
colvars:       # centerToReference = off [default]
colvars:       # rotateToReference = off [default]
colvars:       # atomsOfGroup = "" [default]
colvars:       # indexGroup = "anion"
colvars:       # psfSegID =  [default]
colvars:       # atomsFile = "" [default]
colvars:       # dummyAtom = ( 0 , 0 , 0 ) [default]
colvars:       # enableFitGradients = on [default]
colvars:       # printAtomIDs = off [default]
colvars:       Atom group "group2" defined with 1 atoms requested.
colvars:     # oneSiteSystemForce = off [default]
colvars:     # oneSiteTotalForce = off [default]
colvars:   All components initialized.
colvars:   # timeStepFactor = 1 [default]
colvars:   # width = 0.01
colvars:   # lowerBoundary = 0.75
colvars:   # upperBoundary = 2.5
colvars:   # hardLowerBoundary = off [default]
colvars:   # hardUpperBoundary = off [default]
colvars:   # expandBoundaries = off [default]
colvars:   # extendedLagrangian = off [default]
colvars:   # outputValue = on [default]
colvars:   # outputVelocity = off [default]
colvars:   # outputTotalForce = off [default]
colvars:   # outputAppliedForce = off [default]
colvars:   # subtractAppliedForce = off [default]
colvars:   # runAve = off [default]
colvars:   # corrFunc = off [default]
colvars: ----------------------------------------------------------------------
colvars: Collective variables initialized, 1 in total.
colvars: ----------------------------------------------------------------------
colvars:   Initializing a new "abf" instance.
colvars:   # name = "abf_dist"
colvars:   # colvars = { dist }
colvars:   # stepZeroData = off [default]
colvars:   # outputEnergy = on
colvars:   # outputFreq = 1000
colvars:   # timeStepFactor = 1 [default]
colvars:   WARNING: ABF should not be run without a thermostat or at 0 Kelvin!
colvars:   # applyBias = on [default]
colvars:   # updateBias = on [default]
colvars:   # hideJacobian = off [default]
colvars:   Jacobian (geometric) forces will be included in reported free energy gradients.
colvars:   # fullSamples = 1000
colvars:   # inputPrefix =  [default]
colvars:   # historyFreq = 1000000
colvars:   # shared = off [default]
colvars:   # maxForce =  [default]
colvars:   # integrate = on [default]
colvars:   Finished ABF setup.
colvars: ----------------------------------------------------------------------
colvars:   Initializing a new "harmonicwalls" instance.
colvars:   # name = "wall_dist"
colvars:   # colvars = { dist }
colvars:   # stepZeroData = off [default]
colvars:   # outputEnergy = off [default]
colvars:   # outputFreq = 0 [default]
colvars:   # timeStepFactor = 1 [default]
colvars:   # writeTISamples = off [default]
colvars:   # writeTIPMF = off [default]
colvars:   # forceConstant = 1 [default]
colvars:   # targetForceConstant = -1 [default]
colvars:   # lowerWalls = { 0.7 }
colvars:   # upperWalls = { 2.55 }
colvars:   # lowerWallConstant = 1
colvars:   # upperWallConstant = 1
colvars:   The lower wall force constant for colvar "dist" will be rescaled to 10000 according to the specified width (0.01).
colvars:   The upper wall force constant for colvar "dist" will be rescaled to 10000 according to the specified width (0.01).
colvars: ----------------------------------------------------------------------
colvars: Collective variables biases initialized, 2 in total.
colvars: ----------------------------------------------------------------------
colvars: Collective variables module (re)initialized.
colvars: ----------------------------------------------------------------------
colvars: The restart output state file will be "rest.colvars.state".
colvars: The final output state file will be "equil.colvars.state".
colvars: Opening trajectory file "equil.colvars.traj".
colvars: Setting initial step number from LAMMPS: 100000
colvars: Re-initialized atom group for variable "dist":0/0. 1 atoms: total mass = 1, total charge = 13.626.
colvars: Re-initialized atom group for variable "dist":0/1. 1 atoms: total mass = 1, total charge = -13.626.
colvars:   Prepared sample and gradient buffers at step 100000.
Per MPI rank memory allocation (min/avg/max) = 18.22 | 18.22 | 18.22 Mbytes
   Step          Temp        c_tempSph        Press          TotEng         PotEng         KinEng         E_pair         E_coul         E_long         E_vdwl        Enthalpy   
    100000   0.95350657     0.97432551     7.3944524     -2678.7631     -4110.4532      1431.6901     -4110.4532     -5384.0137     -296.79558      1570.3561      5511.0466    
    101000   0.97448283     0.98121828     7.3587806     -2691.161      -4154.3469      1463.186      -4154.3469     -5412.613      -303.03771      1561.3038      5459.1401    
    102000   1.0569054      1.0499454      7.2994127     -2650.5314     -4237.4749      1586.9435     -4237.4749     -5492.2205     -304.3781       1559.1237      5434.016     
    103000   1.0041227      1.0125632      7.3505317     -2665.3927     -4173.0829      1507.6902     -4173.0829     -5445.7186     -300.47746      1573.1131      5475.7722    
    104000   1.0135563      0.99162494     7.5733108     -2568.6717     -4090.5265      1521.8548     -4090.5265     -5388.0956     -298.79427      1596.3634      5819.2346    
    105000   0.98135129     0.99230007     7.525741      -2640.0384     -4113.5374      1473.499      -4113.5374     -5402.9151     -300.39708      1589.7748      5695.1815    
    106000   1.0052783      0.98967285     7.655556      -2642.9725     -4152.3979      1509.4254     -4152.3979     -5488.4169     -296.73626      1632.7553      5836.0255    
    107000   0.99166671     1.0188757      7.1566879     -2681.346      -4170.3336      1488.9876     -4170.3336     -5388.1183     -301.34685      1519.1315      5245.125     
    108000   1.027436       0.99818086     7.4783033     -2669.2637     -4211.9588      1542.6951     -4211.9588     -5505.3812     -302.2154       1595.6378      5613.4161    
    109000   0.98569578     0.98750811     7.6154877     -2625.692      -4105.7142      1480.0222     -4105.7142     -5413.8952     -301.06312      1609.2441      5808.9279    
    110000   0.98994401     0.98709369     7.718216      -2643.3167     -4129.7177      1486.4009     -4129.7177     -5466.364      -299.08269      1635.729       5905.0811    
    111000   0.99586179     0.99493954     7.5084495     -2641.4082     -4136.6947      1495.2865     -4136.6947     -5427.6913     -301.31307      1592.3097      5674.6603    
    112000   1.0385547      1.0112357      7.3700352     -2611.6455     -4171.0353      1559.3898     -4171.0353     -5427.5854     -304.74311      1561.2932      5551.1207    
    113000   1.053318       1.0163165      7.3462079     -2640.5502     -4222.1072      1581.557      -4222.1072     -5476.2791     -304.70162      1558.8735      5495.8257    
    114000   1.0188367      1.0107847      7.2162955     -2669.7963     -4199.5796      1529.7833     -4199.5796     -5442.3156     -298.0181       1540.7542      5322.6937    
    115000   0.95961352     1.0049769      7.4700174     -2659.914      -4100.7737      1440.8597     -4100.7737     -5385.8987     -297.65352      1582.7785      5613.5886    
    116000   0.98201746     0.99106262     7.0753046     -2751.0554     -4225.5546      1474.4992     -4225.5546     -5451.5495     -297.84523      1523.8401      5085.2785    
    117000   1.001163       0.99894771     7.1516254     -2691.0884     -4194.3347      1503.2463     -4194.3347     -5427.6551     -299.84535      1533.1657      5229.7755    
    118000   0.99693175     0.975096       7.4932072     -2675.9145     -4172.8075      1496.893      -4172.8075     -5464.4034     -304.6016       1596.1975      5623.2722    
    119000   1.0434087      1.0257396      7.6011901     -2541.6825     -4108.3607      1566.6782     -4108.3607     -5417.5575     -295.88704      1605.0839      5877.1019    
    120000   0.96128406     0.99970812     7.4934249     -2726.6603     -4170.0283      1443.368      -4170.0283     -5466.3992     -300.60109      1596.972       5572.7675    
    121000   1.0097588      1.0272398      7.8559221     -2606.3728     -4122.5257      1516.1529     -4122.5257     -5481.5614     -302.59342      1661.6292      6094.543     
    122000   0.9602589      1.0002027      7.1319559     -2689.6124     -4131.4411      1441.8287     -4131.4411     -5351.2528     -294.70503      1514.5167      5209.4664    
    123000   0.94907115     0.98202015     7.317974      -2724.0063     -4149.0367      1425.0303     -4149.0367     -5416.9139     -300.85559      1568.7328      5381.0988    
    124000   0.94896796     1.0002007      7.5214258     -2713.1656     -4138.041       1424.8754     -4138.041      -5464.7867     -295.51097      1622.2567      5617.2749    
    125000   1.0118773      1.0203847      7.3925062     -2616.4149     -4135.7487      1519.3338     -4135.7487     -5406.4705     -303.98732      1574.7091      5571.2393    
    126000   0.98579128     0.98642372     7.7377779     -2629.7219     -4109.8875      1480.1656     -4109.8875     -5463.0086     -304.05028      1657.1714      5940.3419    
    127000   1.0155572      0.98309895     7.3442291     -2622.2012     -4147.0602      1524.8591     -4147.0602     -5399.5295     -303.15407      1555.6234      5511.9832    
    128000   1.0568835      1.012953       7.2522183     -2627.2453     -4214.1558      1586.9105     -4214.1558     -5459.4254     -298.45934      1543.7289      5405.0314    
    129000   0.99411295     0.9861995      7.4049954     -2678.8235     -4171.4841      1492.6606     -4171.4841     -5457.9103     -305.30369      1591.7298      5522.6632    
    130000   1.0026125      1.0089364      7.4829443     -2640.6067     -4146.0294      1505.4227     -4146.0294     -5422.5017     -301.06509      1577.5373      5647.2132    
    131000   1.031507       1.0078492      7.4990242     -2571.2887     -4120.0964      1548.8077     -4120.0964     -5399.1101     -299.02637      1578.04        5734.3407    
    132000   1.0153022      1.0224975      7.3562909     -2645.7481     -4170.2244      1524.4763     -4170.2244     -5427.8187     -300.29511      1557.8894      5501.7954    
    133000   0.96403869     0.99333857     7.170732      -2730.8225     -4178.3266      1447.5041     -4178.3266     -5423.6938     -300.40486      1545.772       5211.2032    
    134000   0.96064475     0.98953988     7.2237466     -2710.717      -4153.1251      1442.4081     -4153.1251     -5380.1165     -303.01604      1530.0075      5290.0257    
    135000   0.96513153     0.97209571     7.2136648     -2711.9735     -4161.1185      1449.145      -4161.1185     -5401.0349     -301.72915      1541.6456      5277.6029    
    136000   1.029116       1.0249081      7.0474343     -2710.4623     -4255.6801      1545.2177     -4255.6801     -5455.8244     -302.75258      1502.8969      5095.0036    
    137000   1.05065        1.045132       7.5794988     -2574.3016     -4151.8525      1577.5509     -4151.8525     -5448.109      -299.84695      1596.1034      5820.4583    
    138000   0.99913311     1.0017285      7.3195241     -2709.1757     -4209.374       1500.1984     -4209.374      -5472.782      -298.06115      1561.4692      5397.6464    
    139000   0.98424854     0.99407151     7.0726827     -2682.0932     -4159.9424      1477.8492     -4159.9424     -5359.3939     -301.11135      1500.5629      5151.3369    
    140000   0.98758242     0.97850547     7.3207653     -2728.3309     -4211.1859      1482.855      -4211.1859     -5489.7608     -300.14436      1578.7192      5379.8659    
    141000   1.0454493      1.0246341      7.4994305     -2635.3541     -4205.0963      1569.7422     -4205.0963     -5491.9451     -298.20489      1585.0537      5670.7253    
    142000   1.0382654      1.0178287      7.3462819     -2599.813      -4158.7686      1558.9555     -4158.7686     -5413.09       -300.86572      1555.1872      5536.6449    
    143000   0.98405815     0.99527839     7.3029854     -2693.754      -4171.3173      1477.5633     -4171.3173     -5429.1851     -302.25865      1560.1264      5394.7503    
    144000   1.0100463      0.99349047     7.1366136     -2639.8575     -4156.4421      1516.5845     -4156.4421     -5389.6032     -294.26879      1527.4299      5264.3798    
    145000   0.98861528     0.99848591     7.3714946     -2739.0379     -4223.4437      1484.4058     -4223.4437     -5488.2468     -305.51146      1570.3146      5425.3447    
    146000   1.0369835      0.99154803     7.7064367     -2521.0692     -4078.0999      1557.0307     -4078.0999     -5390.0606     -300.69911      1612.6598      6014.2823    
    147000   1.0358796      1.0118846      7.9316075     -2514.1505     -4069.5237      1555.3732     -4069.5237     -5431.9168     -297.91643      1660.3095      6270.5914    
    148000   0.96600982     0.99400886     7.1463855     -2768.0948     -4218.5586      1450.4637     -4218.5586     -5457.7956     -301.91881      1541.1558      5146.9656    
    149000   1.0438287      1.0085004      7.2947883     -2588.8427     -4156.1514      1567.3088     -4156.1514     -5393.175      -300.91202      1537.9356      5490.5829    
    150000   1.0470695      1.0221463      6.6945127     -2747.7317     -4319.9066      1572.1749     -4319.9066     -5467.263      -300.51333      1447.8697      4666.8518    
    151000   1.0185322      1.0265632      7.4229319     -2620.6632     -4149.9893      1529.326      -4149.9893     -5438.187      -300.22143      1588.4192      5600.6893    
    152000   1.014291       1.0201195      7.2522242     -2577.9144     -4100.8723      1522.9579     -4100.8723     -5343.8471     -298.45476      1541.4295      5454.3689    
    153000   1.0022956      1.0090832      7.4349384     -2615.109      -4120.0558      1504.9469     -4120.0558     -5406.7495     -302.17164      1588.8653      5619.5414    
    154000   0.98199446     0.99947367     7.3038935     -2660.2028     -4134.6675      1474.4647     -4134.6675     -5388.9012     -302.54989      1556.7835      5429.3073    
    155000   1.0096776      1.0103046      7.3051785     -2668.1282     -4184.1591      1516.0309     -4184.1591     -5427.3406     -301.20027      1544.3818      5422.8052    
    156000   1.0316721      1.0108679      7.3866213     -2598.651      -4147.7067      1549.0557     -4147.7067     -5411.2773     -300.51394      1564.0845      5582.4852    
    157000   0.96056238     0.99180231     7.2199404     -2783.7386     -4226.023       1442.2844     -4226.023      -5479.0252     -299.47162      1552.4738      5212.7884    
    158000   0.95687        0.98869387     7.8264323     -2666.0836     -4102.8239      1436.7403     -4102.8239     -5462.8957     -301.42159      1661.4934      6002.1704    
    159000   0.96717108     0.98211308     7.5690185     -2715.3959     -4167.6033      1452.2074     -4167.6033     -5496.373      -297.94348      1626.7132      5667.7565    
    160000   1.017954       1.0215501      7.3368868     -2622.8159     -4151.2738      1528.4579     -4151.2738     -5399.6645     -301.68879      1550.0795      5503.2364    
    161000   1.0117098      1.0228548      7.6790221     -2619.3246     -4138.4069      1519.0823     -4138.4069     -5462.9822     -303.06209      1627.6374      5885.6635    
    162000   1.0632224      1.0488116      7.3537247     -2565.5697     -4161.9982      1596.4285     -4161.9982     -5400.8374     -303.64732      1542.4866      5579.1316    
    163000   0.97196221     0.99927575     7.0603384     -2786.7844     -4246.1856      1459.4013     -4246.1856     -5465.9923     -302.4791       1522.2857      5032.9736    
    164000   1.03273        1.0236075      7.4053091     -2627.9922     -4178.6363      1550.6441     -4178.6363     -5457.3697     -305.32629      1584.0597      5573.842     
    165000   0.94445094     0.9529525      7.2952218     -2801.1869     -4219.28        1418.0931     -4219.28       -5492.4368     -302.41742      1575.5742      5278.7188    
    166000   0.99661962     1.0152593      7.4336938     -2638.5339     -4134.9583      1496.4244     -4134.9583     -5428.4867     -295.34167      1588.8701      5594.7381    
    167000   1.0452212      1.0094878      7.2637039     -2598.104      -4167.5036      1569.3996     -4167.5036     -5426.1969     -300.41507      1559.1083      5446.8937    
    168000   1.01501        1.0071792      7.4831931     -2632.9294     -4156.9669      1524.0375     -4156.9669     -5444.1876     -296.04131      1583.262       5655.166     
    169000   0.96992386     0.99601204     7.2181311     -2704.488      -4160.8287      1456.3407     -4160.8287     -5417.1935     -297.96476      1554.3295      5290.035     
    170000   0.97507652     0.98137155     7.5880111     -2698.2482     -4162.3256      1464.0774     -4162.3256     -5476.4985     -300.83003      1615.003       5705.9397    
    171000   1.0881724      1.0215028      7.4816484     -2544.4772     -4178.3681      1633.8909     -4178.3681     -5458.1425     -300.26608      1580.0405      5741.9074    
    172000   0.98701991     1.0021094      7.2779559     -2703.7452     -4185.7556      1482.0104     -4185.7556     -5426.1504     -301.83329      1542.2281      5357.0375    
    173000   0.99770514     0.98928191     7.4977873     -2564.92       -4062.9743      1498.0543     -4062.9743     -5344.3374     -294.79431      1576.1574      5739.3394    
    174000   0.96191468     0.98602319     7.4356853     -2791.2306     -4235.5455      1444.3149     -4235.5455     -5527.0156     -302.80425      1594.2744      5444.247     
    175000   0.95849186     0.9873863      7.404363      -2715.6389     -4154.8145      1439.1755     -4154.8145     -5430.9789     -302.20896      1578.3734      5485.1473    
    176000   0.97350697     1.014462       7.0379289     -2759.406      -4221.1267      1461.7207     -4221.1267     -5427.2095     -302.56628      1508.649       5035.532     
    177000   0.99789436     0.99011719     7.3576913     -2637.0934     -4135.4318      1498.3384     -4135.4318     -5385.2539     -301.36023      1551.1823      5512.0011    
    178000   1.0417794      1.0014193      7.4552198     -2595.3747     -4159.6066      1564.2318     -4159.6066     -5432.9504     -301.45318      1574.797       5661.7387    
    179000   0.97448372     0.99891029     7.4093143     -2673.5481     -4136.7354      1463.1873     -4136.7354     -5419.3823     -301.07842      1583.7253      5532.7221    
    180000   1.0224791      1.0385831      7.7615656     -2584.4234     -4119.6757      1535.2523     -4119.6757     -5461.4617     -295.88413      1637.6702      6011.9867    
    181000   1.0184419      1.0000956      7.1190296     -2665.2917     -4194.4822      1529.1905     -4194.4822     -5398.657      -301.74483      1505.9196      5219.4703    
    182000   1.0322341      0.99758353     7.4387321     -2602.8965     -4152.796       1549.8995     -4152.796      -5416.8833     -299.68701      1563.7743      5635.9556    
    183000   1.0211924      1.0115282      7.5393839     -2659.6306     -4192.951       1533.3204     -4192.951      -5501.7998     -303.44224      1612.291       5690.6997    
    184000   1.0205997      1.0087092      7.5165365     -2566.4121     -4098.8425      1532.4304     -4098.8425     -5380.2985     -304.96242      1586.4184      5758.6132    
    185000   1.0045654      1.0160162      7.6122545     -2645.8034     -4154.1582      1508.3549     -4154.1582     -5463.4987     -302.29687      1611.6373      5785.2356    
    186000   1.0272245      1.0132212      7.4886992     -2594.8068     -4137.1843      1542.3775     -4137.1843     -5417.4632     -300.41331      1580.6922      5699.387     
    187000   0.98090938     0.99638347     7.4819607     -2678.5505     -4151.386       1472.8354     -4151.386      -5451.4173     -296.83025      1596.8616      5608.18      
    188000   0.99774186     0.99691474     7.2376636     -2730.9458     -4229.0552      1498.1094     -4229.0552     -5476.1736     -301.56315      1548.6815      5285.2107    
    189000   1.0029308      0.97713916     7.656353      -2611.3502     -4117.2508      1505.9006     -4117.2508     -5424.4971     -300.44341      1607.6897      5868.5305    
    190000   1.0067297      0.99019243     7.2988298     -2658.5838     -4170.1885      1511.6047     -4170.1885     -5422.1886     -297.36469      1549.3648      5425.318     
    191000   0.96022604     1.0022858      7.2410802     -2806.4392     -4248.2186      1441.7794     -4248.2186     -5509.3686     -301.25788      1562.4078      5213.5013    
    192000   1.0074543      1.0114471      7.6611683     -2593.0958     -4105.7883      1512.6926     -4105.7883     -5435.2875     -302.64495      1632.1441      5892.1182    
    193000   1.005148       1.0031552      7.2913099     -2646.3849     -4155.6147      1509.2297     -4155.6147     -5412.6107     -298.02211      1555.0181      5429.1881    
    194000   0.97742972     0.99596714     7.4342346     -2639.7705     -4107.3812      1467.6107     -4107.3812     -5376.7826     -298.13435      1567.5357      5594.1005    
    195000   1.0441398      1.0270569      7.2511312     -2663.1049     -4230.8808      1567.7759     -4230.8808     -5480.4368     -300.27965      1549.8357      5367.9679    
    196000   0.97879495     0.95842773     7.5026776     -2661.5377     -4131.1983      1469.6606     -4131.1983     -5426.4509     -298.41946      1593.6721      5648.1381    
    197000   1.0410667      1.0250735      7.494531      -2584.7365     -4147.8981      1563.1616     -4147.8981     -5426.702      -299.69792      1578.5018      5715.9164    
    198000   1.0307512      1.0225039      7.292911      -2648.9476     -4196.6206      1547.6729     -4196.6206     -5448.9755     -301.63541      1553.9903      5428.3988    
    199000   1.019436       1.007841       7.327423      -2610.1219     -4140.8051      1530.6831     -4140.8051     -5394.8135     -301.3883       1555.3967      5505.4486    
    200000   1.007773       1.0098377      7.754605      -2628.9871     -4142.1582      1513.1711     -4142.1582     -5484.256      -303.8197       1645.9175      5959.7138    
    201000   1.0385571      1.0192122      7.2638887     -2636.5731     -4195.9666      1559.3935     -4195.9666     -5440.6726     -301.80818      1546.5142      5408.6293    
    202000   0.99035528     1.0018363      7.602892      -2574.6352     -4061.6537      1487.0184     -4061.6537     -5377.3041     -299.71813      1615.3685      5846.0342    
    203000   0.98297694     0.99620544     7.5480019     -2667.3112     -4143.2511      1475.9399     -4143.2511     -5451.134      -294.471        1602.3539      5692.564     
    204000   1.0130393      1.00372        7.6072482     -2594.9939     -4116.0724      1521.0785     -4116.0724     -5429.4466     -303.19957      1616.5738      5830.5002    
    205000   0.96094952     0.99132955     7.7389528     -2630.2636     -4073.1293      1442.8657     -4073.1293     -5421.6725     -298.3241       1646.8673      5941.1014    
    206000   1.020277       1.0009756      7.7032797     -2522.4841     -4054.4299      1531.9458     -4054.4299     -5366.5037     -304.3627       1616.4365      6009.3709    
    207000   1.0054514      0.9922771      7.4952558     -2667.3056     -4176.9908      1509.6852     -4176.9908     -5460.1067     -303.74535      1586.8612      5634.1501    
    208000   0.99292423     0.99221266     7.4052888     -2674.5608     -4165.4365      1490.8757     -4165.4365     -5443.1695     -300.68802      1578.421       5527.251     
    209000   1.0002578      1.0020137      7.5203698     -2614.504      -4116.391       1501.8871     -4116.391      -5415.9679     -301.0309       1600.6078      5714.767     
    210000   1.0068437      1.0278185      7.5892404     -2709.9484     -4221.7242      1511.7758     -4221.7242     -5555.8432     -297.66113      1631.7801      5695.6009    
    211000   0.99143193     0.9869765      7.4621571     -2625.4408     -4114.0758      1488.635      -4114.0758     -5394.5405     -302.50995      1582.9746      5639.356     
    212000   1.0237648      1.0145734      7.1496406     -2680.8954     -4218.0782      1537.1829     -4218.0782     -5435.5525     -299.07883      1516.5531      5237.7703    
    213000   1.0175977      0.99652363     7.3981112     -2628.6316     -4156.5545      1527.9229     -4156.5545     -5431.3676     -302.76546      1577.5786      5565.2304    
    214000   0.99818685     0.99772017     7.6605996     -2598.1735     -4096.9511      1498.7776     -4096.9511     -5411.218      -302.73685      1617.0037      5886.4105    
    215000   1.0208768      1.0056044      7.4511195     -2652.5135     -4185.36        1532.8465     -4185.36       -5467.3845     -301.21529      1583.2398      5600.0585    
    216000   0.99599034     0.97761172     7.1494472     -2691.2867     -4186.7662      1495.4795     -4186.7662     -5430.6715     -300.22379      1544.1291      5227.1648    
    217000   1.0150462      1.0099765      7.2422008     -2649.4093     -4173.5012      1524.0919     -4173.5012     -5411.8519     -297.75459      1536.1054      5371.7724    
    218000   1.0200011      0.98495261     7.5632502     -2667.8517     -4199.3834      1531.5317     -4199.3834     -5506.4012     -298.01991      1605.0377      5708.9119    
    219000   0.9898916      0.98401095     7.4016229     -2598.4257     -4084.748       1486.3222     -4084.748      -5350.9381     -297.95282      1564.1429      5599.3257    
    220000   0.98900642     1.0007367      7.3823427     -2683.9277     -4168.9209      1484.9931     -4168.9209     -5457.8523     -299.27713      1588.2085      5492.4698    
    221000   0.99851434     0.99592572     7.3493376     -2728.608      -4227.8772      1499.2693     -4227.8772     -5500.7082     -300.26085      1573.0918      5411.2343    
    222000   0.98272645     0.9929259      7.3644981     -2696.2828     -4171.8466      1475.5638     -4171.8466     -5427.6845     -301.89337      1557.7314      5460.3507    
    223000   0.98833383     0.99256689     7.3250823     -2648.2467     -4132.2299      1483.9832     -4132.2299     -5380.35       -299.63075      1547.7509      5464.7314    
    224000   1.0540211      1.0251691      7.4738644     -2546.292      -4128.9047      1582.6126     -4128.9047     -5395.7031     -300.98482      1567.7833      5731.4713    
    225000   0.98016046     1.0014768      7.8490712     -2594.7698     -4066.4807      1471.7109     -4066.4807     -5439.3357     -294.86223      1667.7173      6098.5581    
    226000   0.98100506     0.96840014     7.3073786     -2711.4729     -4184.452       1472.9791     -4184.452      -5451.8658     -300.30389      1567.7177      5381.8972    
    227000   1.0163926      1.0003667      7.3734167     -2624.9935     -4151.1069      1526.1135     -4151.1069     -5407.6289     -300.33414      1556.8561      5541.518     
    228000   0.99076217     1.0001636      7.2550177     -2665.6705     -4153.2998      1487.6294     -4153.2998     -5403.5455     -300.93566      1551.1813      5369.7067    
    229000   1.0340786      1.0012502      7.0041941     -2650.0643     -4202.7332      1552.669      -4202.7332     -5400.0166     -295.02375      1492.3072      5107.5105    
    230000   0.98191634     1.0065861      7.5049267     -2602.984      -4077.3314      1474.3474     -4077.3314     -5372.9725     -301.50356      1597.1447      5709.1828    
    231000   1.0361929      1.0062605      7.3870062     -2585.2966     -4141.1402      1555.8437     -4141.1402     -5401.8312     -300.76591      1561.4569      5596.266     
    232000   0.93005806     0.96188488     7.3526979     -2721.2644     -4117.7466      1396.4822     -4117.7466     -5391.8382     -298.49161      1572.5832      5422.2996    
    233000   1.007379       1.005109       7.5538273     -2577.9345     -4090.5141      1512.5796     -4090.5141     -5386.3357     -299.93391      1595.7555      5788.3927    
    234000   1.0030465      0.99243888     7.3320683     -2615.0715     -4121.1457      1506.0743     -4121.1457     -5373.8499     -293.0977       1545.8019      5505.644     
    235000   1.0236992      1.0049441      7.2980696     -2653.1463     -4190.2306      1537.0844     -4190.2306     -5432.2968     -297.61928      1539.6855      5429.9135    
    236000   1.0233128      1.0058206      7.5465552     -2584.1357     -4120.64        1536.5042     -4120.64       -5428.4875     -292.02663      1599.8742      5774.1372    
    237000   1.0075667      1.016854       7.23544       -2688.3025     -4201.1639      1512.8614     -4201.1639     -5443.4137     -301.96888      1544.2186      5325.3912    
    238000   1.0236421      0.98984006     7.5267383     -2617.6166     -4154.6152      1536.9986     -4154.6152     -5450.4229     -291.48691      1587.2946      5718.7079    
    239000   1.0216107      1.01668        7.8296249     -2512.0068     -4045.9552      1533.9484     -4045.9552     -5384.3431     -298.86187      1637.2498      6159.7832    
    240000   1.0257625      1.0329733      7.1250691     -2609.9315     -4150.1138      1540.1823     -4150.1138     -5366.409      -298.90561      1515.2008      5281.5197    
    241000   1.0098952      1.0034366      7.3948091     -2688.1229     -4204.4805      1516.3576     -4204.4805     -5493.9776     -298.63195      1588.129       5502.0818    
    242000   0.99492905     0.99168696     7.5586716     -2673.9742     -4167.8601      1493.886      -4167.8601     -5466.8989     -301.48402      1600.5228      5697.7184    
    243000   1.0343508      1.0332755      7.3610049     -2614.8765     -4167.9543      1553.0778     -4167.9543     -5421.6065     -302.39812      1556.0503      5537.888     
    244000   0.98188543     0.97585657     6.9647082     -2742.9043     -4217.2052      1474.301      -4217.2052     -5405.7832     -303.01049      1491.5884      4970.9373    
    245000   1.0064871      1.0027514      7.317897      -2631.2968     -4142.5371      1511.2404     -4142.5371     -5402.157      -301.71305      1561.3329      5473.7231    
    246000   1.014979       0.97351298     7.663103      -2606.2166     -4130.2075      1523.991      -4130.2075     -5437.7676     -300.38424      1607.9443      5881.1402    
    247000   0.98423288     0.99837831     7.3776641     -2694.6526     -4172.4783      1477.8257     -4172.4783     -5438.1397     -305.20179      1570.8632      5476.563     
    248000   0.98781399     0.99084539     7.2932171     -2682.0684     -4165.2711      1483.2027     -4165.2711     -5431.9869     -299.69054      1566.4064      5395.617     
    249000   0.97130076     0.9646267      7.4965344     -2671.7957     -4130.2038      1458.4081     -4130.2038     -5421.1589     -301.0159       1591.971       5631.0761    
    250000   1.0039705      1.0146891      7.7151421     -2607.9799     -4115.4416      1507.4617     -4115.4416     -5456.8286     -298.88769      1640.2747      5937.0133    
    251000   0.97098637     0.97997187     7.0667333     -2719.0496     -4176.9856      1457.936      -4176.9856     -5384.0525     -299.4165       1506.4834      5107.7912    
    252000   1.032043       1.0170178      7.3597869     -2573.4397     -4123.0523      1549.6125     -4123.0523     -5386.2862     -297.59153      1560.8254      5577.9758    
    253000   1.0020961      1.0023859      7.5265859     -2588.0216     -4092.6688      1504.6472     -4092.6688     -5382.166      -297.41268      1586.9099      5748.1341    
    254000   0.99942232     0.98949457     7.024962      -2729.5018     -4230.1344      1500.6326     -4230.1344     -5429.4956     -301.32014      1500.6813      5051.0746    
    255000   1.0152516      0.98143592     7.5565367     -2609.9857     -4134.3859      1524.4002     -4134.3859     -5420.7681     -299.12582      1585.5081      5759.3424    
    256000   0.92437557     0.94976524     7.2459246     -2758.8685     -4146.8184      1387.9499     -4146.8184     -5410.9059     -302.65672      1566.7442      5266.4376    
    257000   1.0030545      1.0115124      7.0563075     -2763.0246     -4269.1109      1506.0864     -4269.1109     -5485.626      -303.66547      1520.1805      5052.269     
    258000   1.0326595      1.0049127      7.668216      -2549.7709     -4100.3091      1550.5382     -4100.3091     -5431.8784     -296.68759      1628.2569      5943.2488    
    259000   1.0423239      1.0232803      7.3308995     -2550.9299     -4115.9791      1565.0493     -4115.9791     -5361.4918     -303.08482      1548.5975      5568.4911    
    260000   1.0378024      1.0237873      7.5686799     -2625.1377     -4183.3981      1558.2603     -4183.3981     -5489.4811     -301.0833       1607.1664      5757.6397    
    261000   1.0447738      1.0245973      7.7462789     -2582.515      -4151.2429      1568.7279     -4151.2429     -5485.3136     -301.41184      1635.4825      5996.9641    
    262000   0.99065256     1.0141362      7.6247018     -2603.469      -4090.9338      1487.4648     -4090.9338     -5411.3348     -297.79547      1618.1965      5841.3561    
    263000   0.99081755     0.99517944     7.1220883     -2727.4078     -4215.1203      1487.7126     -4215.1203     -5436.934      -302.40349      1524.2172      5160.742     
    264000   1.0299908      1.0237642      7.3901688     -2623.1014     -4169.6326      1546.5311     -4169.6326     -5448.369      -297.96273      1576.6991      5561.9639    
    265000   0.95259508     0.98747425     7.4985094     -2677.7933     -4108.1148      1430.3215     -4108.1148     -5394.8447     -301.74813      1588.4781      5627.2659    
    266000   0.98431932     0.99672334     7.3377391     -2630.2646     -4108.2201      1477.9555     -4108.2201     -5383.0582     -295.7837       1570.6218      5496.7317    
    267000   1.0154431      1.0156246      8.0008419     -2538.8014     -4063.4892      1524.6878     -4063.4892     -5451.0798     -297.25699      1684.8476      6322.6219    
    268000   1.0110307      1.0125762      7.4500341     -2586.9188     -4104.9813      1518.0626     -4104.9813     -5388.4426     -297.65836      1581.1196      5664.4511    
    269000   0.95769659     0.99826556     7.3387678     -2733.6555     -4171.637       1437.9814     -4171.637      -5435.5067     -303.408        1567.2777      5394.48      
    270000   1.0279526      1.0257332      7.6659435     -2601.5475     -4145.0182      1543.4708     -4145.0182     -5475.9762     -300.30046      1631.2585      5888.9553    
    271000   1.0197832      1.0124295      7.4982892     -2590.6181     -4121.8225      1531.2044     -4121.8225     -5411.573      -301.43468      1591.1852      5714.1973    
    272000   1.0078399      0.99650536     7.3525251     -2667.1518     -4180.4234      1513.2716     -4180.4234     -5443.0035     -303.24928      1565.8294      5476.2208    
    273000   1.0214136      1.0101971      7.2527629     -2639.8208     -4173.4733      1533.6525     -4173.4733     -5415.2973     -302.18081      1544.0047      5393.059     
    274000   1.0139456      1.0093754      7.361391      -2626.5178     -4148.9572      1522.4394     -4148.9572     -5411.3559     -300.87014      1563.2688      5526.6743    
    275000   1.0220469      1.040454       7.7535662     -2573.5535     -4108.1568      1534.6034     -4108.1568     -5452.582      -300.12711      1644.5523      6013.9968    
    276000   0.97983004     0.9839986      7.2500294     -2721.3875     -4192.6023      1471.2148     -4192.6023     -5456.5007     -300.85699      1564.7554      5308.4649    
    277000   1.0170551      1.0026406      7.4051851     -2608.541      -4135.6492      1527.1082     -4135.6492     -5401.0931     -304.88091      1570.3248      5593.1559    
    278000   0.97656635     0.97866836     7.2242655     -2690.0753     -4156.3897      1466.3144     -4156.3897     -5394.9373     -297.43864      1535.9863      5311.242     
    279000   1.0030781      0.99019958     7.2124938     -2653.6651     -4159.7868      1506.1218     -4159.7868     -5379.5304     -302.02521      1521.7687      5334.6144    
    280000   1.0327407      1.0504376      7.9014744     -2545.2229     -4095.883       1550.6601     -4095.883      -5453.5115     -295.63794      1653.2664      6206.1448    
    281000   0.99555909     0.97564375     7.7185945     -2614.0186     -4108.8506      1494.832      -4108.8506     -5440.3925     -303.17774      1634.7197      5934.7984    
    282000   0.98512675     1.000876       7.1022592     -2743.573      -4222.7408      1479.1678     -4222.7408     -5438.5447     -300.29951      1516.1034      5122.6149    
    283000   1.0252724      1.0174388      7.4837852     -2667.5241     -4206.9707      1539.4465     -4206.9707     -5508.4658     -300.98963      1602.4848      5621.2271    
    284000   1.0005495      1.0308884      7.2769807     -2709.4304     -4211.7555      1502.3251     -4211.7555     -5465.8206     -301.64221      1555.7073      5350.2721    
    285000   1.0070575      1.0045364      7.5823525     -2587.1054     -4099.2023      1512.0968     -4099.2023     -5404.481      -294.31983      1599.5985      5810.8152    
    286000   0.95170129     1.0063761      7.4645729     -2747.106      -4176.0855      1428.9795     -4176.0855     -5480.0947     -299.08203      1603.0913      5520.3664    
    287000   0.9606493      0.97869315     7.2630597     -2786.1689     -4228.5838      1442.4149     -4228.5838     -5496.0941     -298.86824      1566.3785      5258.1153    
    288000   1.0191921      1.0013345      7.6156968     -2565.8754     -4096.1923      1530.3169     -4096.1923     -5405.118      -296.64281      1605.5684      5868.976     
    289000   1.0081352      1.0180159      7.4257117     -2604.048      -4117.763       1513.715      -4117.763      -5393.8667     -301.6991       1577.8028      5620.3833    
    290000   1.0385363      1.0183475      7.5559078     -2573.467      -4132.8293      1559.3623     -4132.8293     -5426.807      -303.29928      1597.277       5795.1645    
    291000   1.0083001      1.0140267      6.9935256     -2690.2307     -4204.1933      1513.9626     -4204.1933     -5400.8025     -302.65504      1499.2642      5055.528     
    292000   1.0059724      1.0091581      7.5495341     -2569.7954     -4080.2629      1510.4675     -4080.2629     -5382.7861     -293.98435      1596.5075      5791.7769    
    293000   1.0377314      1.0304116      7.6554524     -2558.8175     -4116.9711      1558.1537     -4116.9711     -5429.588      -299.94164      1612.5585      5920.0657    
    294000   0.9934228      1.0246214      7.506251      -2670.0941     -4161.7184      1491.6243     -4161.7184     -5450.6271     -301.32488      1590.2336      5643.5395    
    295000   1.0178229      0.98927858     7.5101099     -2623.8336     -4152.0947      1528.2611     -4152.0947     -5440.4563     -300.38165      1588.7432      5694.0739    
    296000   1.0203374      1.0350566      7.6765312     -2554.1261     -4086.1628      1532.0367     -4086.1628     -5395.3825     -294.44439      1603.6641      5948.1032    
    297000   1.0451519      1.0223843      7.2468316     -2603.99       -4173.2856      1569.2956     -4173.2856     -5403.3073     -301.25698      1531.2787      5422.3207    
    298000   0.95460962     0.97867308     7.7130536     -2652.9713     -4086.3177      1433.3463     -4086.3177     -5432.6662     -304.48462      1650.8331      5889.7087    
    299000   1.0254306      1.0249551      7.3083388     -2561.3091     -4100.9932      1539.6841     -4100.9932     -5341.3488     -295.72585      1536.0815      5533.1245    
    300000   0.9744917      1.0177994      7.395243      -2719.9281     -4183.1274      1463.1993     -4183.1274     -5464.554      -301.10403      1582.5306      5470.7573    
    301000   0.96096534     0.9761806      7.5113181     -2704.3644     -4147.2539      1442.8895     -4147.2539     -5450.0282     -300.60637      1603.3806      5614.8812    
    302000   1.0082997      0.99584217     7.7025955     -2556.9801     -4070.942       1513.9619     -4070.942      -5397.1491     -296.6503       1622.8574      5974.117     
    303000   1.0590474      1.0146085      7.252196      -2652.8829     -4243.0426      1590.1597     -4243.0426     -5490.0012     -297.72798      1544.6866      5379.3691    
    304000   1.0090726      1.0083722      7.6923329     -2558.4861     -4073.6086      1515.1225     -4073.6086     -5382.1074     -303.40267      1611.9014      5961.2446    
    305000   0.98479969     0.98863893     7.5885794     -2637.164      -4115.8407      1478.6767     -4115.8407     -5447.6345     -300.00067      1631.7945      5767.6533    
    306000   1.0306753      1.0060225      7.2932623     -2677.4133     -4224.9723      1547.559      -4224.9723     -5474.9227     -298.14563      1548.0961      5400.3221    
    307000   0.9779865      0.98593374     7.332201      -2715.7254     -4184.1721      1468.4467     -4184.1721     -5464.18       -300.0302       1580.0381      5405.1371    
    308000   1.0088471      1.0335194      7.4815798     -2657.1653     -4171.9493      1514.784      -4171.9493     -5463.7299     -301.72942      1593.51        5629.1433    
    309000   1.0581712      1.0296132      7.7081793     -2572.6421     -4161.4862      1588.8441     -4161.4862     -5490.628      -301.23662      1630.3784      5964.6394    
    310000   1.0791212      1.0536461      7.2045835     -2553.0563     -4173.3567      1620.3004     -4173.3567     -5384.6148     -300.48377      1511.7418      5426.4619    
    311000   1.0573424      1.0229067      7.3361324     -2532.543      -4120.1425      1587.5996     -4120.1425     -5360.9387     -299.13712      1539.9332      5592.6738    
    312000   0.99065282     0.98827777     7.538964      -2631.2584     -4118.7236      1487.4652     -4118.7236     -5417.1158     -300.39268      1598.7849      5718.6067    
    313000   0.98506082     1.0072645      7.8037158     -2529.4778     -4008.5466      1479.0688     -4008.5466     -5343.0974     -301.95815      1636.5089      6113.6162    
    314000   1.0188674      1.0117825      7.680021      -2594.5821     -4124.4116      1529.8294     -4124.4116     -5449.3663     -302.15504      1627.1097      5911.5123    
    315000   0.99413306     1.012456       7.5739733     -2595.7487     -4088.4395      1492.6908     -4088.4395     -5393.8962     -300.60103      1606.0577      5792.8914    
    316000   0.98866069     0.99312746     7.265943      -2642.377      -4126.851       1484.474      -4126.851      -5377.1401     -301.78457      1552.0737      5405.1007    
    317000   0.95077195     0.99120487     7.5263588     -2690.5019     -4118.086       1427.5841     -4118.086      -5422.1893     -302.673        1606.7763      5645.4023    
    318000   1.0039979      1.0043151      7.7332372     -2508.005      -4015.5079      1507.5029     -4015.5079     -5347.1922     -294.2059       1625.8903      6057.0297    
    319000   0.99125661     1.0128655      7.3996789     -2632.5482     -4120.92        1488.3718     -4120.92       -5394.3343     -301.34014      1574.7545      5563.0502    
    320000   1.0219614      1.0196885      7.2901419     -2671.7285     -4206.2035      1534.475      -4206.2035     -5452.6884     -305.61807      1552.103       5402.5509    
    321000   0.9714358      0.9892607      7.5077919     -2720.0197     -4178.6306      1458.6109     -4178.6306     -5474.7094     -299.83497      1595.9138      5595.3205    
    322000   0.96735631     0.99435478     7.1804858     -2715.3679     -4167.8534      1452.4855     -4167.8534     -5406.2319     -300.95351      1539.332       5237.4607    
    323000   0.97938905     0.99519575     7.3366355     -2712.1055     -4182.6582      1470.5527     -4182.6582     -5445.4325     -298.71233      1561.4867      5413.6685    
    324000   1.0028475      0.99160832     7.4521484     -2631.3048     -4137.0803      1505.7755     -4137.0803     -5419.8304     -298.23601      1580.9861      5622.4067    
    325000   1.0274599      1.0083486      7.1956561     -2605.1353     -4147.8663      1542.7311     -4147.8663     -5367.106      -300.10961      1519.3493      5364.4953    
    326000   0.99910707     0.98784306     7.5905485     -2644.9947     -4145.154       1500.1593     -4145.154      -5445.6353     -306.18135      1606.6627      5762.0034    
    327000   0.93621026     0.95981943     7.039745      -2801.8182     -4207.5379      1405.7197     -4207.5379     -5435.6956     -303.20276      1531.3605      4995.1313    
    328000   1.0179351      0.9916163      7.6231645     -2571.9973     -4100.4268      1528.4295     -4100.4268     -5406.9994     -298.50186      1605.0744      5871.1251    
    329000   0.99050834     0.99555281     7.6415228     -2589.6669     -4076.9151      1487.2483     -4076.9151     -5389.1117     -296.33016      1608.5267      5873.7885    
    330000   1.0173452      1.0164884      7.089754      -2720.2045     -4247.7483      1527.5438     -4247.7483     -5458.6417     -298.73736      1509.6307      5132.133     
    331000   0.97082425     0.99640572     7.2525255     -2721.2988     -4178.9914      1457.6926     -4178.9914     -5431.4081     -299.92741      1552.3441      5311.3182    
    332000   1.0277137      0.9963505      7.6866005     -2449.6516     -3992.7638      1543.1122     -3992.7638     -5297.5705     -297.47721      1602.2839      6063.73      
    333000   1.0043049      0.98401937     7.0742439     -2714.3751     -4222.3389      1507.9638     -4222.3389     -5438.8944     -301.39455      1517.9501      5120.7841    
    334000   1.0056602      0.97199208     7.7025123     -2654.2249     -4164.2236      1509.9987     -4164.2236     -5485.102      -300.21392      1621.0924      5876.7801    
    335000   0.99792376     0.9808831      7.497701      -2679.9534     -4178.3359      1498.3825     -4178.3359     -5473.9548     -301.34452      1596.9634      5624.2104    
    336000   1.0399925      1.0277292      7.7932102     -2535.9821     -4097.5309      1561.5488     -4097.5309     -5424.7276     -299.5722       1626.7689      6095.4763    
    337000   0.9550124      0.95894643     7.3362113     -2708.552      -4142.5032      1433.9511     -4142.5032     -5409.2873     -302.41573      1569.1999      5416.752     
    338000   1.0044427      0.99332481     7.4635196     -2640.1631     -4148.3339      1508.1707     -4148.3339     -5419.0038     -303.06052      1573.7305      5626.1428    
    339000   1.0156013      1.0241444      7.5500751     -2633.8833     -4158.8087      1524.9254     -4158.8087     -5446.7667     -303.6138       1591.5718      5728.2881    
    340000   0.98550836     0.97357527     7.4645083     -2617.6668     -4097.4076      1479.7408     -4097.4076     -5387.9317     -297.14904      1587.6731      5649.7341    
    341000   1.0179376      1.0048593      7.3602303     -2651.4969     -4179.9303      1528.4334     -4179.9303     -5453.8705     -302.94606      1576.8862      5500.4097    
    342000   0.98895353     1.0079795      7.3416597     -2638.4731     -4123.3869      1484.9137     -4123.3869     -5379.1527     -303.04257      1558.8084      5492.8654    
    343000   0.99696929     0.98418689     7.3483267     -2643.8095     -4140.7589      1496.9494     -4140.7589     -5398.856      -300.76448      1558.8615      5494.9131    
    344000   1.0328898      1.0117575      7.7733501     -2591.8157     -4142.6997      1550.884      -4142.6997     -5498.5085     -299.02379      1654.8325      6017.6465    
    345000   1.0192962      1.0192321      7.5178466     -2635.4611     -4165.9344      1530.4732     -4165.9344     -5466.0541     -299.68117      1599.8009      5691.0152    
    346000   0.97794862     0.99725679     7.4698291     -2697.7257     -4166.1156      1468.3899     -4166.1156     -5455.8436     -297.1104       1586.8385      5575.5684    
    347000   0.9619852      0.96448677     7.338809      -2720.5099     -4164.9307      1444.4208     -4164.9307     -5444.1781     -299.19302      1578.4404      5407.6713    
    348000   0.96995644     0.99660601     7.6634243     -2657.8233     -4114.2129      1456.3896     -4114.2129     -5431.8171     -302.50384      1620.1081      5829.8893    
    349000   0.99295264     1.0088465      7.3974574     -2630.1048     -4121.0231      1490.9184     -4121.0231     -5382.0768     -298.78224      1559.8359      5563.0332    
    350000   1.0465716      1.0233196      7.2044351     -2659.8156     -4231.2429      1571.4273     -4231.2429     -5459.0798     -304.89104      1532.7279      5319.5383    
    351000   0.96383696     1.0024085      7.5498226     -2713.2615     -4160.4627      1447.2012     -4160.4627     -5464.6083     -301.42627      1605.5719      5648.6303    
    352000   1.0035396      0.99806241     7.522848      -2643.0077     -4149.8224      1506.8147     -4149.8224     -5442.0693     -300.27219      1592.5191      5689.008     
    353000   0.99298279     1.0039067      7.4966207     -2603.617      -4094.5806      1490.9637     -4094.5806     -5376.5856     -301.53396      1583.539       5699.3504    
    354000   0.9992193      1.016989       7.5434444     -2615.858      -4116.1858      1500.3278     -4116.1858     -5408.8889     -303.88697      1596.5901      5738.9695    
    355000   0.94753179     0.97575644     7.1776487     -2764.1382     -4186.8572      1422.719      -4186.8572     -5429.3549     -302.02333      1544.5211      5185.5481    
    356000   0.98601696     0.99014488     7.2736247     -2655.8976     -4136.402       1480.5045     -4136.402      -5383.8983     -305.60457      1553.1008      5400.0881    
    357000   1.0030626      0.99482669     7.5370373     -2620.7739     -4126.8724      1506.0984     -4126.8724     -5422.847      -301.22699      1597.2016      5726.9573    
    358000   0.97717458     0.98511019     7.4000451     -2678.3926     -4145.6202      1467.2276     -4145.6202     -5420.5872     -300.88246      1575.8495      5517.6114    
    359000   0.98799438     0.9917434      7.1366647     -2702.0822     -4185.5558      1483.4736     -4185.5558     -5415.1838     -299.60103      1529.2291      5202.2118    
    360000   0.96948747     1.0095423      7.7232544     -2649.1178     -4104.8033      1455.6854     -4104.8033     -5453.1661     -295.68535      1644.0482      5904.8602    
    361000   0.97856421     1.0117995      7.2417412     -2692.874      -4162.1881      1469.3142     -4162.1881     -5399.3325     -297.40816      1534.5526      5327.7987    
    362000   1.0061029      1.0101895      7.3087711     -2679.7097     -4190.3732      1510.6635     -4190.3732     -5448.8022     -296.85285      1555.2818      5415.2027    
    363000   1.0635662      1.0061883      7.5816751     -2452.4466     -4049.3913      1596.9447     -4049.3913     -5346.0818     -300.43759      1597.1281      5944.7237    
    364000   1.0113839      1.0045535      7.2782382     -2671.1292     -4189.7221      1518.5929     -4189.7221     -5431.0971     -303.77051      1545.1456      5389.9662    
    365000   0.99563941     1.0021618      7.4086125     -2713.8437     -4208.7963      1494.9526     -4208.7963     -5503.9213     -300.4625       1595.5876      5491.6492    
    366000   1.0087008      0.99249746     7.6477576     -2630.8725     -4145.4367      1514.5643     -4145.4367     -5462.39       -301.79792      1618.7512      5839.4883    
    367000   1.0428597      1.0218941      7.3984143     -2608.02       -4173.8739      1565.8539     -4173.8739     -5444.602      -301.1916       1571.9197      5586.1778    
    368000   1.0266502      1.0141062      7.5196798     -2594.0389     -4135.5541      1541.5153     -4135.5541     -5437.2662     -299.1844       1600.8965      5734.4679    
    369000   1.0383308      1.0236299      7.8394711     -2533.6089     -4092.6626      1559.0537     -4092.6626     -5442.8261     -299.11638      1649.2799      6149.0863    
    370000   1.0295916      1.0222342      7.3295363     -2615.7762     -4161.7081      1545.9319     -4161.7081     -5407.7116     -302.33707      1548.3406      5502.1349    
    371000   1.0263699      0.99909419     7.4334207     -2672.0848     -4213.1793      1541.0944     -4213.1793     -5493.3258     -303.00198      1583.1485      5560.8847    
    372000   1.0394111      1.0137186      7.7251967     -2541.1305     -4101.8064      1560.6758     -4101.8064     -5428.5431     -300.7208       1627.4575      6014.9988    
    373000   1.0156189      0.99694116     7.4595418     -2627.4759     -4152.4277      1524.9518     -4152.4277     -5432.2353     -304.89236      1584.7         5634.4244    
    374000   0.96701935     0.98184201     7.1922989     -2733.1972     -4185.1767      1451.9796     -4185.1767     -5425.914      -300.00855      1540.7458      5232.7152    
    375000   0.96225945     0.9663734      8.2501739     -2621.2566     -4066.0892      1444.8326     -4066.0892     -5504.9777     -304.21658      1743.1051      6516.3172    
    376000   0.99290173     0.99779875     7.647069      -2658.7604     -4149.6024      1490.8419     -4149.6024     -5481.9238     -299.56094      1631.8824      5810.8377    
    377000   0.9734875      0.98872575     6.9874791     -2753.5247     -4215.2162      1461.6915     -4215.2162     -5419.8064     -302.87999      1507.4702      4985.5371    
    378000   0.97882709     0.98289611     7.2992725     -2681.8045     -4151.5134      1469.7089     -4151.5134     -5421.5934     -301.80081      1571.8808      5402.5876    
    379000   0.99830361     0.99517878     7.0867704     -2717.6228     -4216.5757      1498.9529     -4216.5757     -5425.5262     -300.27389      1509.2245      5131.4102    
    380000   0.98509708     1.0140526      7.4483727     -2692.9961     -4172.1193      1479.1233     -4172.1193     -5467.2641     -300.53393      1595.6787      5556.5337    
    381000   1.0109516      1.0213814      7.497296      -2541.6876     -4059.6315      1517.9439     -4059.6315     -5340.762      -299.61559      1580.7461      5762.0277    
    382000   1.0301371      0.99111582     7.5077975     -2553.8599     -4100.6108      1546.7509     -4100.6108     -5387.4697     -302.24548      1589.1044      5761.4865    
    383000   0.97404746     1.0029081      7.1281043     -2732.6507     -4195.1829      1462.5323     -4195.1829     -5410.169      -299.85608      1514.8422      5162.1621    
    384000   0.98034751     0.98847719     7.52368       -2690.4989     -4162.4907      1471.9918     -4162.4907     -5469.7273     -298.10663      1605.3432      5642.4383    
    385000   1.0273303      1.0214517      7.4958242     -2587.3966     -4129.933       1542.5364     -4129.933      -5411.7438     -302.53106      1584.3419      5714.6886    
    386000   1.0184446      1.0275738      7.1950748     -2623.3919     -4152.5864      1529.1945     -4152.5864     -5373.2498     -302.13564      1522.799       5345.5949    
    387000   0.98395763     0.99489131     7.6481466     -2665.5309     -4142.9433      1477.4124     -4142.9433     -5473.7871     -300.39354      1631.2373      5805.2607    
    388000   1.0030607      0.98285788     7.3179539     -2621.3365     -4127.4322      1506.0957     -4127.4322     -5376.8842     -302.84119      1552.2933      5483.7465    
    389000   1.0201515      1.0053483      7.3039184     -2678.5951     -4210.3526      1531.7575     -4210.3526     -5467.3911     -300.56143      1557.5999      5410.9427    
    390000   1.0348157      1.0267879      7.0807553     -2601.6084     -4155.3841      1553.7757     -4155.3841     -5356.3796     -303.70437      1504.6998      5240.7626    
    391000   0.97558353     0.99167153     7.3564828     -2631.4113     -4096.25        1464.8387     -4096.25       -5357.1487     -299.37295      1560.2717      5516.3447    
    392000   1.0460906      1.024899       7.2971616     -2545.1803     -4115.8853      1570.705      -4115.8853     -5357.6458     -302.9531       1544.7136      5536.8739    
    393000   1.0296966      1.0173798      7.4570047     -2634.4716     -4180.5611      1546.0895     -4180.5611     -5479.3652     -302.9298       1601.7339      5624.6186    
    394000   1.0169423      1.0071156      7.5376311     -2667.0193     -4193.9581      1526.9388     -4193.9581     -5496.4328     -300.00679      1602.4815      5681.3696    
    395000   1.0138145      1.0088341      7.385188      -2641.3444     -4163.5869      1522.2424     -4163.5869     -5434.2631     -300.6994       1571.3757      5538.2044    
    396000   0.98489383     0.97922609     7.2057289     -2763.7429     -4242.561       1478.8181     -4242.561      -5491.9741     -302.84938      1552.2625      5217.044     
    397000   0.97936148     0.99886006     7.4338691     -2671.4806     -4141.9919      1470.5113     -4141.9919     -5438.7082     -295.70018      1592.4165      5561.9855    
    398000   1.0233651      0.99534759     7.4201557     -2603.5897     -4140.1724      1536.5828     -4140.1724     -5403.6415     -304.89195      1568.361       5614.688     
    399000   0.95936135     0.97877213     7.7182925     -2679.7189     -4120.2         1440.4811     -4120.2        -5470.0223     -302.57827      1652.4005      5868.7635    
    400000   1.0298155      1.0140453      7.5318811     -2592.0323     -4138.3002      1546.2679     -4138.3002     -5436.0062     -302.57724      1600.2832      5749.9881    
    401000   0.99079302     0.99988624     7.495243      -2660.7395     -4148.4152      1487.6757     -4148.4152     -5432.969      -299.47333      1584.0271      5640.702     
    402000   1.0203741      1.0168554      7.601906      -2635.6862     -4167.7778      1532.0917     -4167.7778     -5479.4339     -303.09322      1614.7493      5783.8912    
    403000   1.0171042      1.0168964      7.5420627     -2601.6312     -4128.8131      1527.1819     -4128.8131     -5406.229      -300.95113      1578.367       5751.666     
    404000   0.95944666     0.96575804     7.5061165     -2696.7277     -4137.3369      1440.6092     -4137.3369     -5437.9928     -302.78336      1603.4393      5616.7568    
    405000   0.97628774     0.98055183     7.4872273     -2718.4064     -4184.3024      1465.896      -4184.3024     -5485.825      -295.17765      1596.7002      5574.1572    
    406000   1.00679        1.0144373      7.5879883     -2568.6699     -4080.3651      1511.6952     -4080.3651     -5388.5505     -295.97212      1604.1575      5835.4926    
    407000   0.98194484     1.0092486      7.2229166     -2647.4547     -4121.8449      1474.3902     -4121.8449     -5359.1367     -299.03815      1536.33        5352.3686    
    408000   1.0248414      1.0021908      7.4693584     -2552.1605     -4090.96        1538.7994     -4090.96       -5361.3186     -301.11873      1571.4773      5720.6122    
    409000   0.96296147     0.97058318     7.6337819     -2698.7126     -4144.5992      1445.8866     -4144.5992     -5460.5373     -300.84614      1616.7842      5756.1693    
    410000   1.0057777      1.0164295      7.4820051     -2663.208      -4173.3832      1510.1752     -4173.3832     -5459.2012     -301.41213      1587.2301      5623.5717    
    411000   1.0105106      1.0108704      7.354275      -2693.9511     -4211.2328      1517.2817     -4211.2328     -5474.2038     -298.37275      1561.3437      5451.3597    
    412000   0.9480001      0.97837851     7.4095581     -2676.6676     -4100.0897      1423.4222     -4100.0897     -5368.4613     -298.49666      1566.8682      5529.8726    
    413000   1.009847       1.005631       7.4241513     -2591.0105     -4107.2958      1516.2853     -4107.2958     -5380.3485     -300.64587      1573.6985      5631.6926    
    414000   0.98144066     1.0090019      7.4970529     -2606.1105     -4079.7437      1473.6331     -4079.7437     -5363.377      -300.38237      1584.0158      5697.3355    
    415000   0.98823392     0.98591267     7.500578      -2638.0691     -4121.9023      1483.8332     -4121.9023     -5399.2596     -299.24837      1576.6057      5669.2813    
    416000   1.0106273      1.0247277      7.2619648     -2679.7748     -4197.2317      1517.4568     -4197.2317     -5437.6532     -298.4758       1538.8973      5363.2967    
    417000   1.0161889      1.0098554      7.2903613     -2703.2034     -4229.011       1525.8076     -4229.011      -5489.6076     -300.36868      1560.9653      5371.319     
    418000   1.0434662      1.0356691      7.3659609     -2584.0445     -4150.809       1566.7645     -4150.809      -5408.9506     -297.16533      1555.3069      5574.2091    
    419000   1.0460267      1.0142074      7.6254371     -2564.1329     -4134.742       1570.6091     -4134.742      -5449.2728     -299.68233      1614.2131      5881.5065    
    420000   0.97095385     0.99696916     7.4891453     -2637.5456     -4095.4328      1457.8872     -4095.4328     -5380.2715     -299.26905      1584.1078      5657.1424    
    421000   0.99490661     0.99656313     7.4524128     -2639.1264     -4132.9786      1493.8523     -4132.9786     -5413.0796     -299.544        1579.645       5614.8781    
    422000   0.97317156     0.96813033     7.5980137     -2706.7373     -4167.9544      1461.2171     -4167.9544     -5492.6539     -302.62347      1627.323       5708.5291    
    423000   0.98566315     1.0038012      7.6480465     -2673.688      -4153.6612      1479.9732     -4153.6612     -5480.2005     -300.02209      1626.5614      5796.9927    
    424000   1.0024079      0.99969948     7.2414528     -2659.9021     -4165.0176      1505.1155     -4165.0176     -5424.1161     -302.25144      1561.3499      5360.4512    
    425000   0.99140982     0.9966932      7.0193802     -2640.5379     -4129.1398      1488.6018     -4129.1398     -5332.9616     -297.25411      1501.0759      5133.8564    
    426000   1.016716       0.99607123     7.4103454     -2665.429      -4192.0281      1526.599      -4192.0281     -5471.6931     -298.76454      1578.4295      5541.9832    
    427000   0.9703454      1.0132314      7.5969505     -2710.9573     -4167.9309      1456.9736     -4167.9309     -5492.7521     -300.5684       1625.3896      5703.1315    
    428000   1.0086461      0.99099209     7.8119035     -2539.6859     -4054.168       1514.4821     -4054.168      -5401.7782     -296.79985      1644.4101      6112.4765    
    429000   0.98250907     0.99998879     7.6586444     -2632.2785     -4107.5159      1475.2374     -4107.5159     -5424.0368     -300.79842      1617.3193      5850.14      
    430000   0.97728644     0.99569851     7.0970394     -2667.6994     -4135.095       1467.3956     -4135.095      -5345.4712     -301.06793      1511.4441      5192.7071    
    431000   0.98689944     0.96525808     7.278184      -2744.0966     -4225.9262      1481.8295     -4225.9262     -5487.618      -299.60221      1561.2941      5316.9387    
    432000   1.0171348      0.9948715      7.5861467     -2563.2703     -4090.4982      1527.2279     -4090.4982     -5402.9426     -299.58871      1612.0332      5838.8525    
    433000   1.0266981      0.99080232     7.4588913     -2584.5837     -4126.1708      1541.5871     -4126.1708     -5402.4035     -297.76648      1573.9991      5676.5961    
    434000   1.00688        1.0042239      7.3990208     -2665.068      -4176.8983      1511.8303     -4176.8983     -5444.7343     -301.69818      1569.5342      5529.8016    
    435000   0.99607249     0.99008907     7.2757206     -2738.4424     -4234.0452      1495.6028     -4234.0452     -5494.5191     -299.99526      1560.4692      5319.8646    
    436000   0.99823644     0.9933565      7.2227322     -2625.4237     -4124.2757      1498.852      -4124.2757     -5360.8169     -301.18896      1537.7302      5374.1953    
    437000   0.99249185     0.99971075     7.0338799     -2762.1801     -4252.4066      1490.2265     -4252.4066     -5468.8265     -302.30592      1518.7258      5028.2735    
    438000   0.96659958     0.98545492     7.0155432     -2781.4169     -4232.7661      1451.3493     -4232.7661     -5438.376      -298.57142      1504.1813      4988.7277    
    439000   1.0352183      1.0067805      7.4218686     -2533.2663     -4087.6466      1554.3803     -4087.6466     -5352.2724     -298.46696      1563.0927      5686.9085    
    440000   0.97485523     0.99183111     7.8190955     -2625.658      -4089.4032      1463.7451     -4089.4032     -5434.7887     -298.90636      1644.2919      6034.4699    
    441000   1.003352       0.99906196     7.7454197     -2670.9878     -4177.5208      1506.533      -4177.5208     -5512.0211     -300.16122      1634.6615      5907.5397    
    442000   0.96179023     0.97020022     7.1067869     -2685.5603     -4129.6883      1444.128      -4129.6883     -5353.9338     -290.28787      1514.5333      5185.6422    
    443000   1.0132081      0.99961918     7.3557804     -2642.2865     -4163.6185      1521.332      -4163.6185     -5432.4255     -296.60746      1565.4145      5504.6916    
    444000   1.0089593      1.0149358      7.8761385     -2551.0571     -4066.0094      1514.9523     -4066.0094     -5423.4161     -299.36431      1656.771       6172.2496    
    445000   1.0325271      1.0196986      7.305431      -2586.1253     -4136.4647      1550.3395     -4136.4647     -5380.7611     -300.32602      1544.6224      5505.0878    
    446000   1.0036659      1.0015438      7.1857546     -2635.9034     -4142.9078      1507.0044     -4142.9078     -5362.1441     -303.46755      1522.7039      5322.7607    
    447000   0.99293005     0.98120809     7.2971939     -2669.002      -4159.8865      1490.8845     -4159.8865     -5420.4212     -296.33466      1556.8694      5413.088     
    448000   1.0014557      1.0122216      7.0282472     -2737.3809     -4241.0666      1503.6857     -4241.0666     -5432.413      -303.62375      1494.9702      5046.8342    
    449000   1.0213802      1.0298225      7.4839721     -2621.0033     -4154.6056      1533.6023     -4154.6056     -5446.035      -303.47663      1594.906       5667.9549    
    450000   1.0415341      1.0052         7.5622897     -2495.7891     -4059.6525      1563.8634     -4059.6525     -5364.7873     -302.77339      1607.9082      5879.9107    
    451000   1.0015416      0.99674074     7.8647255     -2579.1058     -4082.9205      1503.8148     -4082.9205     -5440.9892     -298.50749      1656.5762      6131.5603    
    452000   1.0463039      1.0094553      7.198002      -2601.8679     -4172.8932      1571.0253     -4172.8932     -5400.4573     -301.61433      1529.1785      5370.3609    
    453000   1.0024454      1.0128393      7.2092073     -2721.0241     -4226.1959      1505.1718     -4226.1959     -5446.4449     -301.80544      1522.0545      5263.6153    
    454000   1.0076123      0.99505521     7.4803486     -2651.5093     -4164.4391      1512.9298     -4164.4391     -5438.4063     -299.72664      1573.6939      5633.4357    
    455000   0.95137602     0.96251694     7.1786741     -2738.3726     -4166.8637      1428.4911     -4166.8637     -5406.7247     -292.1952       1532.0562      5212.4494    
    456000   0.97417052     0.99694963     7.4328834     -2690.2424     -4152.9595      1462.717      -4152.9595     -5425.5375     -299.98145      1572.5594      5542.132     
    457000   0.99306215     1.0036409      7.4791182     -2629.6141     -4120.6969      1491.0828     -4120.6969     -5415.3843     -300.28594      1594.9734      5653.9681    
    458000   0.96976697     0.96857434     7.2490516     -2723.667      -4179.7721      1456.1051     -4179.7721     -5435.3828     -298.48139      1554.0921      5305.1025    
    459000   1.0083214      1.0194372      7.3150928     -2628.901      -4142.8955      1513.9945     -4142.8955     -5406.1039     -300.43064      1563.6391      5473.0131    
    460000   0.96350709     0.9817919      7.5366274     -2691.4856     -4138.1915      1446.7059     -4138.1915     -5435.7712     -304.75335      1602.3331      5655.7917    
    461000   1.0308396      0.99859003     7.1683943     -2624.3704     -4172.1761      1547.8057     -4172.1761     -5389.1764     -301.00673      1518.007       5315.0661    
    462000   0.97326184     0.97405558     7.5290795     -2661.7695     -4123.1221      1461.3527     -4123.1221     -5423.5447     -303.02167      1603.4442      5677.148     
    463000   1.0043853      1.0042562      7.2034654     -2615.4065     -4123.4911      1508.0846     -4123.4911     -5353.983      -298.85447      1529.3463      5362.8734    
    464000   0.97126523     0.98409749     7.4787161     -2694.9243     -4153.279       1458.3547     -4153.279      -5454.5283     -302.88222      1604.1315      5588.2127    
    465000   0.98178672     0.96209193     7.4421684     -2643.6207     -4117.7734      1474.1528     -4117.7734     -5396.7415     -301.18497      1580.1531      5599.0374    
    466000   1.0000178      1.0077807      7.2953922     -2614.0604     -4115.5871      1501.5267     -4115.5871     -5363.6494     -303.03209      1551.0944      5466.0341    
    467000   1.0320495      1.0178389      7.405475      -2537.2238     -4086.8461      1549.6223     -4086.8461     -5353.4263     -300.98852      1567.5688      5664.7942    
    468000   1.0069657      0.99459642     7.5011338     -2603.8541     -4115.813       1511.959      -4115.813      -5398.5344     -298.39929      1581.1207      5704.1119    
    469000   1.0523409      1.0210448      7.6116817     -2539.716      -4119.8058      1580.0898     -4119.8058     -5417.3883     -300.91359      1598.4961      5890.6885    
    470000   1.0137688      1.020382       7.7442804     -2572.731      -4094.9048      1522.1738     -4094.9048     -5425.1325     -303.70624      1633.934       6004.5347    
    471000   0.99429036     0.99832334     7.4375647     -2604.1801     -4097.1071      1492.927      -4097.1071     -5381.2593     -303.57983      1587.7321      5633.3792    
    472000   0.97630973     0.97915171     7.7001323     -2639.8338     -4105.7629      1465.9291     -4105.7629     -5433.4125     -302.12474      1629.7744      5888.5352    
    473000   1.0156266      1.0181695      7.3519011     -2674.6419     -4199.6053      1524.9634     -4199.6053     -5452.9741     -301.97586      1555.3446      5468.0396    
    474000   1.0125493      1.0036986      7.7096362     -2562.3177     -4082.6604      1520.3427     -4082.6604     -5423.8312     -295.60838      1636.7792      5976.5774    
    475000   0.97530161     0.98979769     7.9405037     -2642.8044     -4107.2198      1464.4154     -4107.2198     -5480.0866     -303.02338      1675.8902      6151.7906    
    476000   0.94105366     0.9638933      7.0872802     -2779.5336     -4192.5256      1412.9921     -4192.5256     -5419.3971     -301.2219       1528.0934      5070.0641    
    477000   0.97576648     0.9983375      7.3490763     -2695.6955     -4160.8088      1465.1134     -4160.8088     -5436.2042     -299.52517      1574.9206      5443.8574    
    478000   0.9823349      1.0048645      7.2913471     -2714.4081     -4189.384       1474.9759     -4189.384      -5461.0363     -297.71915      1569.3714      5361.2062    
    479000   0.99482207     1.0333289      7.1838568     -2691.298      -4185.0234      1493.7253     -4185.0234     -5414.4069     -302.94219      1532.3257      5265.2642    
    480000   0.97400559     0.98599064     7.32829       -2744.3161     -4206.7855      1462.4694     -4206.7855     -5479.7188     -295.81342      1568.7467      5372.2147    
    481000   0.99307252     1.006101       7.5666439     -2684.1878     -4175.2862      1491.0984     -4175.2862     -5493.846      -304.69494      1623.2548      5696.3346    
    482000   0.97356087     0.99365611     7.4489045     -2666.9717     -4128.7734      1461.8016     -4128.7734     -5412.2192     -300.98749      1584.4333      5583.147     
    483000   0.99564359     0.98048853     7.104271      -2742.3468     -4237.3057      1494.9589     -4237.3057     -5481.1085     -298.0484       1541.8512      5126.0692    
    484000   1.0320075      1.0235806      7.5583075     -2626.25       -4175.8093      1549.5593     -4175.8093     -5476.9153     -300.39467      1601.5007      5745.0393    
    485000   0.98937998     0.96747883     7.4906939     -2654.0731     -4139.6272      1485.554      -4139.6272     -5419.8628     -300.46169      1580.6974      5642.3299    
    486000   0.99101996     0.98852135     7.1299002     -2717.7289     -4205.7454      1488.0165     -4205.7454     -5429.6789     -298.34574      1522.2793      5179.073     
    487000   1.003359       1.0036978      7.05066       -2675.7063     -4182.2498      1506.5435     -4182.2498     -5386.5755     -297.27369      1501.5994      5133.3322    
    488000   0.99858031     1.0024994      7.3541562     -2606.8214     -4106.1897      1499.3683     -4106.1897     -5365.2248     -299.56255      1558.5976      5538.3577    
    489000   1.0499815      1.0372877      6.9013369     -2644.3049     -4220.8521      1576.5472     -4220.8521     -5376.5428     -300.67942      1456.3702      4999.3492    
    490000   0.98974808     1.0023062      7.5122287     -2636.2934     -4122.4001      1486.1067     -4122.4001     -5422.5633     -297.3192       1597.4823      5683.9609    
    491000   1.0052286      1.0244277      7.1748816     -2746.0686     -4255.4194      1509.3508     -4255.4194     -5492.3807     -300.21596      1537.1772      5200.553     
    492000   0.99917662     0.99405508     7.3173432     -2674.9644     -4175.2281      1500.2637     -4175.2281     -5434.5745     -303.57833      1562.9248      5429.4422    
    493000   0.98364381     1.0017501      7.5236614     -2635.2644     -4112.2055      1476.9412     -4112.2055     -5399.9999     -305.02775      1592.8221      5697.6522    
    494000   1.0238015      1.0128724      7.7311247     -2568.7867     -4106.0247      1537.238      -4106.0247     -5431.6193     -305.72097      1631.3156      5993.9083    
    495000   0.96305072     0.97005469     7.4031245     -2715.8531     -4161.8738      1446.0207     -4161.8738     -5444.9224     -299.73634      1582.785       5483.5615    
    496000   1.013175       0.99203891     7.5759217     -2673.5473     -4194.8295      1521.2822     -4194.8295     -5511.6408     -299.47913      1616.2904      5717.2508    
    497000   1.0375059      1.0068839      7.4736818     -2562.9071     -4120.7222      1557.8151     -4120.7222     -5391.4996     -300.42339      1571.2009      5714.6541    
    498000   0.9883773      0.99062031     7.470954      -2615.3566     -4099.4051      1484.0485     -4099.4051     -5378.5317     -302.11016      1581.2367      5659.1833    
    499000   0.96131818     0.9676827      6.8860517     -2762.9491     -4206.3684      1443.4193     -4206.3684     -5384.2051     -301.96206      1479.7988      4863.7756    
    500000   0.97746942     0.95969048     7.087036      -2711.0318     -4178.7021      1467.6703     -4178.7021     -5393.3848     -302.32165      1517.0044      5138.2954    
    501000   1.0233604      1.0166645      7.2421652     -2625.2759     -4161.8515      1536.5756     -4161.8515     -5397.617      -300.35353      1536.119       5395.8664    
    502000   0.9842963      0.99306171     7.2314952     -2711.2434     -4189.1643      1477.9209     -4189.1643     -5437.1124     -301.51559      1549.4637      5298.0812    
    503000   0.98170974     0.99310701     7.4614014     -2685.7726     -4159.8098      1474.0372     -4159.8098     -5453.8157     -302.24709      1596.253       5578.1872    
    504000   0.98931135     1.000497       7.4926832     -2657.5329     -4142.9839      1485.451      -4142.9839     -5441.4861     -298.28767      1596.7899      5641.0734    
    505000   0.95039863     0.98269778     7.2914505     -2699.0369     -4126.0605      1427.0235     -4126.0605     -5379.064      -304.26091      1557.2645      5376.6919    
    506000   1.0379695      1.0244167      7.5669975     -2622.1265     -4180.6377      1558.5112     -4180.6377     -5486.4729     -302.57849      1608.4137      5758.7876    
    507000   0.98564528     0.98983077     7.5963348     -2659.2627     -4139.209       1479.9464     -4139.209      -5456.0165     -303.29884      1620.1062      5754.1443    
    508000   0.9894         0.9939645      7.5777963     -2663.9194     -4149.5034      1485.5841     -4149.5034     -5467.4724     -304.09397      1622.0629      5728.955     
    509000   1.037276       1.0259067      7.3700028     -2590.3977     -4147.8676      1557.4699     -4147.8676     -5413.8933     -296.19737      1562.2231      5572.3326    
    510000   0.96550249     0.98324393     7.8360224     -2673.0723     -4122.7743      1449.702      -4122.7743     -5486.672      -298.73508      1662.6328      6005.8033    
    511000   0.99424566     0.98950805     6.8590799     -2718.3294     -4211.1893      1492.8599     -4211.1893     -5385.3196     -299.86707      1473.9975      4878.5225    
    512000   1.0277209      0.99346327     7.2107947     -2647.3321     -4190.4551      1543.123      -4190.4551     -5423.0218     -301.81089      1534.3775      5339.0654    
    513000   0.99328639     0.99089698     7.2822556     -2706.7856     -4198.2051      1491.4195     -4198.2051     -5452.921      -302.82381      1557.5397      5358.7593    
    514000   0.9689523      0.98501984     7.6807833     -2605.0079     -4059.8898      1454.8819     -4059.8898     -5390.6176     -297.68797      1628.4158      5901.9308    
    515000   0.96611388     0.99321961     7.5994092     -2659.9579     -4110.5779      1450.62       -4110.5779     -5413.1657     -302.69713      1605.2849      5756.854     
    516000   0.95183512     0.99064036     6.9788445     -2804.1214     -4233.3018      1429.1804     -4233.3018     -5431.6819     -303.0095       1501.3896      4925.3771    
    517000   1.0496621      1.0077723      7.7783989     -2516.6601     -4092.7277      1576.0677     -4092.7277     -5431.6638     -298.63869      1637.5748      6098.394     
    518000   0.93348209     0.97947897     7.5390719     -2684.7469     -4086.3703      1401.6234     -4086.3703     -5382.5593     -299.34595      1595.535       5665.2378    
    519000   1.0062762      0.9955109      7.4371109     -2646.1477     -4157.0713      1510.9237     -4157.0713     -5431.8779     -305.09791      1579.9044      5590.909     
    520000   0.98414855     1.0044822      7.6050495     -2646.5574     -4124.2564      1477.6991     -4124.2564     -5433.6904     -302.62154      1612.0554      5776.5015    
    521000   1.034993       1.0033842      7.4434918     -2582.2308     -4136.2727      1554.0419     -4136.2727     -5402.0644     -299.96726      1565.7589      5661.893     
    522000   1.0056757      0.99429729     7.2891757     -2666.1496     -4176.1717      1510.0221     -4176.1717     -5429.9471     -304.69349      1558.4689      5407.0596    
    523000   1.0444726      1.0135401      7.1900753     -2603.1503     -4171.4258      1568.2756     -4171.4258     -5389.2713     -298.03373      1515.8792      5360.2993    
    524000   1.0430067      1.0419897      7.5617701     -2536.8289     -4102.9035      1566.0745     -4102.9035     -5386.824      -299.75769      1583.6782      5838.2954    
    525000   0.95345136     0.97364708     7.6804472     -2663.7529     -4095.3601      1431.6072     -4095.3601     -5428.3194     -294.90415      1627.8635      5842.8137    
    526000   0.97019544     0.97450009     7.509188      -2676.9441     -4133.6925      1456.7485     -4133.6925     -5431.2901     -299.84334      1597.4409      5639.9424    
    527000   1.0107403      1.0274126      7.6042744     -2557.623      -4075.2496      1517.6266     -4075.2496     -5383.3986     -300.34068      1608.4897      5864.5774    
    528000   0.96981082     1.0020132      7.0282046     -2758.5893     -4214.7603      1456.171      -4214.7603     -5430.8359     -299.92435      1516           5025.5784    
    529000   0.99233902     0.98795033     7.4819363     -2650.5589     -4140.5559      1489.997      -4140.5559     -5424.0715     -299.68155      1583.1971      5636.1446    
    530000   1.0129353      1.0234328      7.5639277     -2682.9781     -4203.9005      1520.9224     -4203.9005     -5521.1113     -297.57471      1614.7855      5694.5359    
    531000   0.98398552     1.0139198      7.503755      -2700.829      -4178.2833      1477.4543     -4178.2833     -5495.5196     -303.02534      1620.2617      5610.04      
    532000   1.0177957      1.0078014      7.6420146     -2687.7195     -4215.9397      1528.2202     -4215.9397     -5547.9034     -302.44526      1634.409       5776.2806    
    533000   1.0230112      1.0179322      7.2635499     -2575.5871     -4111.6384      1536.0513     -4111.6384     -5343.1181     -304.50829      1535.988       5469.24      
    534000   0.96977711     0.97204667     7.720827      -2643.4859     -4099.6062      1456.1203     -4099.6062     -5437.2743     -299.56057      1637.2287      5907.8038    
    535000   0.98333829     1.0048636      7.2934167     -2678.7057     -4155.1881      1476.4824     -4155.1881     -5400.2674     -302.63827      1547.7175      5399.2008    
    536000   1.0095051      0.99090941     7.692765      -2596.395      -4112.1669      1515.7719     -4112.1669     -5454.3326     -295.32522      1637.4909      5923.8142    
    537000   0.97897255     0.98798796     7.3623844     -2693.5557     -4163.483       1469.9273     -4163.483      -5448.727      -299.33652      1584.5806      5460.7368    
    538000   1.0147708      1.0068754      7.2234017     -2585.3725     -4109.0508      1523.6783     -4109.0508     -5344.6701     -295.58921      1531.2085      5414.9881    
    539000   1.0109782      1.0210099      7.2339435     -2648.7651     -4166.7488      1517.9838     -4166.7488     -5417.7394     -302.86463      1553.8552      5363.2712    
    540000   0.96950902     0.98463852     7.1463176     -2725.6777     -4181.3955      1455.7178     -4181.3955     -5403.2975     -299.51931      1521.4212      5189.3075    
    541000   0.99275223     0.9905858      7.6977337     -2625.8323     -4116.4498      1490.6175     -4116.4498     -5435.0381     -301.98334      1620.5717      5899.8801    
    542000   1.0068169      1.0193147      7.1660747     -2627.9514     -4139.6869      1511.7355     -4139.6869     -5367.3595     -299.52785      1527.2004      5308.916     
    543000   0.97203674     0.99637293     7.3418392     -2621.2833     -4080.7965      1459.5132     -4080.7965     -5338.3152     -298.81986      1556.3386      5510.254     
    544000   1.0225553      0.99517453     7.6748893     -2605.8046     -4141.1714      1535.3667     -4141.1714     -5457.5769     -303.12313      1619.5287      5894.6061    
    545000   0.99802501     1.0055137      7.5534202     -2619.3126     -4117.8472      1498.5345     -4117.8472     -5424.5921     -298.95228      1605.6972      5746.5637    
    546000   0.99502542     0.99010607     7.1920878     -2677.8392     -4171.8699      1494.0307     -4171.8699     -5406.3757     -301.48872      1535.9945      5287.8393    
    547000   0.96049277     1.0010118      7.6177902     -2629.0437     -4071.2236      1442.1799     -4071.2236     -5376.2231     -302.26105      1607.2605      5808.1263    
    548000   0.95175828     0.95788754     7.3785837     -2683.3168     -4112.3819      1429.0651     -4112.3819     -5380.6576     -301.10432      1569.38        5488.9173    
    549000   0.99395311     0.99846831     7.4308631     -2695.8518     -4188.2724      1492.4206     -4188.2724     -5482.7637     -297.42433      1591.9156      5534.2851    
    550000   0.96835385     1.0001433      7.6214082     -2661.4744     -4115.4577      1453.9833     -4115.4577     -5442.1385     -301.94618      1628.627       5779.7028    
    551000   1.0051357      1.0094554      7.7653351     -2650.8432     -4160.0544      1509.2113     -4160.0544     -5506.7663     -304.93121      1651.6431      5949.7419    
    552000   0.98713333     0.99282639     7.4364277     -2642.0146     -4124.1953      1482.1807     -4124.1953     -5399.2954     -302.89905      1577.9992      5594.2853    
    553000   0.98155871     0.98421093     7.2757922     -2651.0144     -4124.8248      1473.8104     -4124.8248     -5382.4004     -299.46754      1557.0432      5407.3719    
    554000   0.94410936     0.99543381     7.4656313     -2657.0238     -4074.604       1417.5802     -4074.604      -5366.5895     -299.653        1591.6385      5611.6209    
    555000   1.0094614      1.0224404      7.2877605     -2632.281      -4147.9874      1515.7063     -4147.9874     -5406.3433     -296.87133      1555.2272      5439.3608    
    556000   0.94501912     0.98827578     7.1326895     -2782.7806     -4201.7268      1418.9462     -4201.7268     -5426.8554     -302.67065      1527.7992      5117.1107    
    557000   0.99849414     1.0134765      7.7668005     -2629.8147     -4129.0537      1499.239      -4129.0537     -5486.7562     -299.3587       1657.0612      5972.3933    
    558000   0.97655503     1.0043591      7.5795384     -2608.2492     -4074.5466      1466.2974     -4074.5466     -5378.0631     -299.05905      1602.5756      5786.5546    
    559000   0.99099453     0.99467961     7.3469276     -2664.2197     -4152.198       1487.9783     -4152.198      -5399.8974     -305.37293      1553.0722      5472.9534    
    560000   0.98717676     1.0169782      7.7560021     -2627.1197     -4109.3656      1482.2459     -4109.3656     -5453.0569     -299.74183      1643.4332      5963.1285    
    561000   0.9979041      0.9765467      7.4970031     -2665.3045     -4163.6575      1498.353      -4163.6575     -5462.3313     -301.73409      1600.4078      5638.0864    
    562000   1.0199708      1.0289963      7.4578973     -2635.4799     -4166.966       1531.4861     -4166.966      -5461.2339     -298.59478      1592.8627      5624.599     
    563000   1.0010485      1.0157293      7.6323103     -2614.5132     -4117.5876      1503.0744     -4117.5876     -5439.3981     -302.27416      1624.0846      5838.7387    
    564000   0.99565676     0.99403726     7.093777      -2724.4132     -4219.3918      1494.9786     -4219.3918     -5449.0687     -299.09693      1528.7738      5132.38      
    565000   0.99288804     0.95739975     7.2109996     -2714.799      -4205.6204      1490.8214     -4205.6204     -5442.7399     -302.18193      1539.3014      5271.8255    
    566000   0.95787437     0.98206988     7.4855622     -2639.6096     -4077.858       1438.2484     -4077.858      -5356.6383     -296.99637      1575.7767      5651.1098    
    567000   0.99689852     1.0058937      7.1814474     -2669.621      -4166.4641      1496.8431     -4166.4641     -5390.1594     -301.56351      1525.2588      5284.2727    
    568000   0.96461557     0.97970103     7.2540971     -2734.3095     -4182.6798      1448.3703     -4182.6798     -5447.5315     -296.67542      1561.5271      5300.0481    
    569000   1.0093749      0.99440539     7.6852369     -2545.1173     -4060.6938      1515.5765     -4060.6938     -5387.5469     -301.28566      1628.1388      5966.7541    
    570000   0.97520425     0.98425652     7.8786014     -2650.1086     -4114.3778      1464.2692     -4114.3778     -5488.9117     -304.786        1679.3199      6075.9258    
    571000   0.9575065      0.99496816     7.2497059     -2697.8107     -4135.5067      1437.696      -4135.5067     -5379.2164     -302.20576      1545.9155      5331.6833    
    572000   1.036788       1.0352406      7.3764592     -2623.9872     -4180.7244      1556.7372     -4180.7244     -5435.5795     -303.60162      1558.4567      5545.8939    
    573000   1.042344       1.0187543      7.3580853     -2636.8142     -4201.8938      1565.0796     -4201.8938     -5481.5741     -297.94681      1577.6271      5512.7168    
    574000   1.0016693      0.9964839      7.5172373     -2705.4486     -4209.4551      1504.0065     -4209.4551     -5508.202      -302.47401      1601.2209      5620.3529    
    575000   0.9661719      0.96307533     7.7043656     -2580.4229     -4031.13        1450.7071     -4031.13       -5343.4251     -299.54191      1611.837       5952.6346    
    576000   1.0333919      1.029544       7.4805851     -2600.3177     -4151.9556      1551.6379     -4151.9556     -5433.163      -300.57077      1581.7782      5684.8893    
    577000   1.0013813      1.0039282      7.6147528     -2646.7165     -4150.2906      1503.5741     -4150.2906     -5461.2944     -302.45366      1613.4575      5787.0894    
    578000   1.0150292      0.98472794     7.6002379     -2584.7478     -4108.8141      1524.0663     -4108.8141     -5421.1518     -300.05672      1612.3944      5832.982     
    579000   1.0019854      1.027043       7.2855108     -2635.6299     -4140.1109      1504.481      -4140.1109     -5393.6821     -299.80974      1553.381       5433.5204    
    580000   1.0138725      1.0049235      7.572971      -2610.9819     -4133.3114      1522.3295     -4133.3114     -5446.1467     -300.52096      1613.3562      5776.5481    
    581000   0.99081202     1.0090387      7.5646399     -2666.7264     -4154.4306      1487.7042     -4154.4306     -5473.2573     -297.99727      1616.824       5711.5765    
    582000   0.97092752     0.99672434     7.3376172     -2677.6811     -4135.5287      1457.8477     -4135.5287     -5395.5426     -303.54905      1563.5629      5449.1802    
    583000   1.0555427      1.028171       7.6468169     -2603.8669     -4188.7643      1584.8974     -4188.7643     -5509.0196     -300.72428      1620.9796      5865.452     
    584000   1.0063997      1.0029732      7.6681295     -2636.1068     -4147.216       1511.1091     -4147.216      -5468.7519     -300.13604      1621.6719      5856.8171    
    585000   0.99297845     1.0123911      7.356625      -2567.5997     -4058.5569      1490.9571     -4058.5569     -5322.6061     -290.11497      1554.1642      5580.3139    
    586000   1.0305728      0.98154795     7.3432687     -2665.7198     -4213.1248      1547.405      -4213.1248     -5465.7377     -301.46703      1554.0799      5467.4008    
    587000   1.0110912      1.0231395      7.1521002     -2644.7283     -4162.8817      1518.1535     -4162.8817     -5404.0467     -293.3746       1534.5396      5276.6615    
    588000   1.0164495      1.0199841      7.6095056     -2573.4674     -4099.6664      1526.199      -4099.6664     -5411.095      -299.52325      1610.9518      5854.5269    
    589000   1.0009008      0.9945642      7.480663      -2653.4111     -4156.2637      1502.8526     -4156.2637     -5448.16       -300.54259      1592.4389      5631.8821    
    590000   0.97785906     0.97764679     7.3635049     -2615.1795     -4083.4349      1468.2554     -4083.4349     -5348.2438     -297.16048      1561.9694      5540.3539    
    591000   1.0194707      0.99630823     7.5720735     -2633.6088     -4164.3441      1530.7353     -4164.3441     -5478.1015     -298.22321      1611.9806      5752.9271    
    592000   0.99556282     0.98901369     7.5526708     -2666.4662     -4161.3038      1494.8376     -4161.3038     -5470.8741     -299.13414      1608.7045      5698.58      
    593000   0.98445586     1.0112087      7.9605136     -2670.2989     -4148.4594      1478.1605     -4148.4594     -5563.1629     -300.8129       1715.5164      6146.4583    
    594000   0.99991903     0.98484762     7.293339      -2631.8166     -4133.195       1501.3784     -4133.195      -5388.923      -298.98377      1554.7117      5446.0038    
    595000   0.97604223     1.0068236      7.4571512     -2691.9138     -4157.4412      1465.5274     -4157.4412     -5456.0215     -294.97485      1593.5552      5567.3386    
    596000   1.0020158      1.0314323      7.3224778     -2634.0821     -4138.6088      1504.5267     -4138.6088     -5387.684      -300.70794      1549.7831      5476.0113    
    597000   0.99339492     1.0036887      7.8115484     -2645.5614     -4137.1438      1491.5825     -4137.1438     -5506.3954     -300.40105      1669.6526      6006.2077    
    598000   0.99525599     0.98713593     7.3518437     -2672.2187     -4166.5956      1494.3769     -4166.5956     -5430.3202     -301.15484      1564.8795      5470.3993    
    599000   1.0225467      1.0156005      7.4673609     -2599.8621     -4135.216       1535.3538     -4135.216      -5416.0994     -301.44739      1582.3309      5670.6982    
    600000   1.0674352      1.0376203      7.463355      -2541.4866     -4144.2406      1602.754      -4144.2406     -5422.3283     -299.18713      1577.2748      5724.637     
colvars: Saving collective variables state to "equil.colvars.state".
Loop time of 5734.42 on 1 procs for 500000 steps with 1002 atoms

Performance: 37667.300 tau/day, 87.193 timesteps/s
100.0% CPU use with 1 MPI tasks x 1 OpenMP threads

MPI task timing breakdown:
Section |  min time  |  avg time  |  max time  |%varavg| %total
---------------------------------------------------------------
Pair    | 26.1       | 26.1       | 26.1       |   0.0 |  0.46
Kspace  | 5607.6     | 5607.6     | 5607.6     |   0.0 | 97.79
Neigh   | 0.065532   | 0.065532   | 0.065532   |   0.0 |  0.00
Comm    | 54.392     | 54.392     | 54.392     |   0.0 |  0.95
Output  | 0.066098   | 0.066098   | 0.066098   |   0.0 |  0.00
Modify  | 41.295     | 41.295     | 41.295     |   0.0 |  0.72
Other   |            | 4.9        |            |       |  0.09

Nlocal:           1002 ave        1002 max        1002 min
Histogram: 1 0 0 0 0 0 0 0 0 0
Nghost:           7688 ave        7688 max        7688 min
Histogram: 1 0 0 0 0 0 0 0 0 0
Neighs:              0 ave           0 max           0 min
Histogram: 1 0 0 0 0 0 0 0 0 0

Total # of neighbors = 0
Ave neighs/atom = 0
Neighbor list builds = 47024
Dangerous builds = 0

undump         1
unfix          1
unfix          2
unfix          3

#####################################################
# Production (NVT Sphere with colvars)

reset_timestep 0
fix		         1 all nve/sphere update dipole
fix            2 all langevin 1.0 1.0 1.0 214323 omega yes
fix            3 ions colvars input.colvars input equil output prod

thermo		     1000
thermo_style	 custom step temp c_tempSph press etotal pe ke epair ecoul elong evdwl enthalpy
WARNING: New thermo_style command, previous thermo_modify settings will be lost (../output.cpp:903)
thermo_modify  norm no
dump	       	 1 all custom 10000 dump.dipoleProd id type x y z q mux muy muz

timestep	     0.005
run		         500000

CITE-CITE-CITE-CITE-CITE-CITE-CITE-CITE-CITE-CITE-CITE-CITE-CITE

Your simulation uses code contributions which should be cited:

- Colvars module (Fiorin2013, plus other works listed for specific features)


% Colvars module:
% Colvars-LAMMPS interface:
% Optimal rotation via flexible fitting:
% distance colvar component:
% harmonicWalls colvar bias implementation:

@article{Fiorin2013,
  author = {Fiorin, Giacomo and Klein, Michael L.{} and H\'enin, J\'er\^ome},
  title = {Using collective variables to drive molecular dynamics simulations},
  journal = {Mol. Phys.},
  year = {2013},
  volume = {111},
  number = {22-23},
  pages = {3345--3362},
  publisher = {Taylor & Francis},
  doi = {10.1080/00268976.2013.813594},
  url = {https://doi.org/10.1080/00268976.2013.813594}
}


% ABF colvar bias implementation:
% Internal-forces free energy estimator:

@article{Henin2010,
  author = {H\'enin, J\'er\^ome and Fiorin, Giacomo and Chipot, Christophe and Klein, Michael L.},
  title = {Exploring multidimensional free energy landscapes using time-dependent biases on collective variables},
  journal = {J. Chem. Theory Comput.},
  year = {2010},
  volume = {6},
  pages = {35-47},
  number = {1},
  doi = {10.1021/ct9004432},
  pmid = {26614317},
  url = {https://doi.org/10.1021/ct9004432}
}


% LAMMPS engine:

@article{Plimpton1995,
  title = {Fast parallel algorithms for short-range molecular dynamics},
  author = {Plimpton, Steve},
  journal = {J. Comp. Phys.},
  year = {1995},
  volume = {117},
  number = {1},
  pages = {1--19},
  doi = {10.1006/jcph.1995.1039},
  url = {https://doi.org/10.1006/jcph.1995.1039}
}

CITE-CITE-CITE-CITE-CITE-CITE-CITE-CITE-CITE-CITE-CITE-CITE-CITE

EwaldDisp initialization ...
Generated 3 of 3 mixed pair_coeff terms from geometric mixing rule
  G vector = 0.55961375,   accuracy = 0.0001
Generated 3 of 3 mixed pair_coeff terms from geometric mixing rule
colvars: Creating proxy instance
colvars: ----------------------------------------------------------------------
colvars: Initializing the collective variables module, version 2022-05-24.
colvars: Please cite Fiorin et al, Mol Phys 2013:
colvars:   https://doi.org/10.1080/00268976.2013.813594
colvars: as well as all other papers listed below for individual features used.
colvars: This version was built with the C++11 standard or higher.
colvars: Using LAMMPS interface, version "2022-05-09".
colvars: ----------------------------------------------------------------------
colvars: Reading new configuration from file "input.colvars":
colvars: # units = "" [default]
colvars: # indexFile = "groups.ndx"
colvars: The following index groups are currently defined:
colvars:   cation (1 atoms)
colvars:   anion (1 atoms)
colvars: # smp = on [default]
colvars: # colvarsTrajFrequency = 1000
colvars: # colvarsRestartFrequency = 0 [default]
colvars: # scriptedColvarForces = off [default]
colvars: # scriptingAfterBiases = off [default]
colvars: ----------------------------------------------------------------------
colvars:   Initializing a new collective variable.
colvars:   # name = "dist"
colvars:   Initializing a new "distance" component.
colvars:     # name = "" [default]
colvars:     # componentCoeff = 1 [default]
colvars:     # componentExp = 1 [default]
colvars:     # period = 0 [default]
colvars:     # wrapAround = 0 [default]
colvars:     # forceNoPBC = off [default]
colvars:     # scalable = on [default]
colvars:       Initializing atom group "group1".
colvars:       # name = "" [default]
colvars:       # centerToOrigin = off [default]
colvars:       # centerToReference = off [default]
colvars:       # rotateToReference = off [default]
colvars:       # atomsOfGroup = "" [default]
colvars:       # indexGroup = "cation"
colvars:       # psfSegID =  [default]
colvars:       # atomsFile = "" [default]
colvars:       # dummyAtom = ( 0 , 0 , 0 ) [default]
colvars:       # enableFitGradients = on [default]
colvars:       # printAtomIDs = off [default]
colvars:       Atom group "group1" defined with 1 atoms requested.
colvars:       Initializing atom group "group2".
colvars:       # name = "" [default]
colvars:       # centerToOrigin = off [default]
colvars:       # centerToReference = off [default]
colvars:       # rotateToReference = off [default]
colvars:       # atomsOfGroup = "" [default]
colvars:       # indexGroup = "anion"
colvars:       # psfSegID =  [default]
colvars:       # atomsFile = "" [default]
colvars:       # dummyAtom = ( 0 , 0 , 0 ) [default]
colvars:       # enableFitGradients = on [default]
colvars:       # printAtomIDs = off [default]
colvars:       Atom group "group2" defined with 1 atoms requested.
colvars:     # oneSiteSystemForce = off [default]
colvars:     # oneSiteTotalForce = off [default]
colvars:   All components initialized.
colvars:   # timeStepFactor = 1 [default]
colvars:   # width = 0.01
colvars:   # lowerBoundary = 0.75
colvars:   # upperBoundary = 2.5
colvars:   # hardLowerBoundary = off [default]
colvars:   # hardUpperBoundary = off [default]
colvars:   # expandBoundaries = off [default]
colvars:   # extendedLagrangian = off [default]
colvars:   # outputValue = on [default]
colvars:   # outputVelocity = off [default]
colvars:   # outputTotalForce = off [default]
colvars:   # outputAppliedForce = off [default]
colvars:   # subtractAppliedForce = off [default]
colvars:   # runAve = off [default]
colvars:   # corrFunc = off [default]
colvars: ----------------------------------------------------------------------
colvars: Collective variables initialized, 1 in total.
colvars: ----------------------------------------------------------------------
colvars:   Initializing a new "abf" instance.
colvars:   # name = "abf_dist"
colvars:   # colvars = { dist }
colvars:   # stepZeroData = off [default]
colvars:   # outputEnergy = on
colvars:   # outputFreq = 1000
colvars:   # timeStepFactor = 1 [default]
colvars:   WARNING: ABF should not be run without a thermostat or at 0 Kelvin!
colvars:   # applyBias = on [default]
colvars:   # updateBias = on [default]
colvars:   # hideJacobian = off [default]
colvars:   Jacobian (geometric) forces will be included in reported free energy gradients.
colvars:   # fullSamples = 1000
colvars:   # inputPrefix =  [default]
colvars:   # historyFreq = 1000000
colvars:   # shared = off [default]
colvars:   # maxForce =  [default]
colvars:   # integrate = on [default]
colvars:   Finished ABF setup.
colvars: ----------------------------------------------------------------------
colvars:   Initializing a new "harmonicwalls" instance.
colvars:   # name = "wall_dist"
colvars:   # colvars = { dist }
colvars:   # stepZeroData = off [default]
colvars:   # outputEnergy = off [default]
colvars:   # outputFreq = 0 [default]
colvars:   # timeStepFactor = 1 [default]
colvars:   # writeTISamples = off [default]
colvars:   # writeTIPMF = off [default]
colvars:   # forceConstant = 1 [default]
colvars:   # targetForceConstant = -1 [default]
colvars:   # lowerWalls = { 0.7 }
colvars:   # upperWalls = { 2.55 }
colvars:   # lowerWallConstant = 1
colvars:   # upperWallConstant = 1
colvars:   The lower wall force constant for colvar "dist" will be rescaled to 10000 according to the specified width (0.01).
colvars:   The upper wall force constant for colvar "dist" will be rescaled to 10000 according to the specified width (0.01).
colvars: ----------------------------------------------------------------------
colvars: Collective variables biases initialized, 2 in total.
colvars: ----------------------------------------------------------------------
colvars: Collective variables module (re)initialized.
colvars: ----------------------------------------------------------------------
colvars: ----------------------------------------------------------------------
colvars: Loading state from file "equil.colvars.state".
colvars:   Restarting collective variable "dist" from value: 1.62158
colvars:   Restarting abf bias "abf_dist" from step number 600000.
colvars:   Restarting harmonicwalls bias "wall_dist" from step number 600000.
colvars: ----------------------------------------------------------------------
colvars: The restart output state file will be "rest.colvars.state".
colvars: The final output state file will be "prod.colvars.state".
colvars: Opening trajectory file "prod.colvars.traj".
colvars: Re-initialized atom group for variable "dist":0/0. 1 atoms: total mass = 1, total charge = 13.626.
colvars: Re-initialized atom group for variable "dist":0/1. 1 atoms: total mass = 1, total charge = -13.626.
colvars:   Prepared sample and gradient buffers at step 600000.
Per MPI rank memory allocation (min/avg/max) = 18.22 | 18.22 | 18.22 Mbytes
   Step          Temp        c_tempSph        Press          TotEng         PotEng         KinEng         E_pair         E_coul         E_long         E_vdwl        Enthalpy   
         0   1.0674352      1.0376203      7.4633549     -2541.4866     -4144.2406      1602.754      -4144.2406     -5422.3283     -299.18713      1577.2748      5724.6369    
      1000   1.0107781      1.0181915      7.2409622     -2590.9376     -4108.6209      1517.6833     -4108.6209     -5341.8182     -299.02158      1532.2189      5428.8723    
      2000   0.96176267     0.97242928     7.3257019     -2743.6048     -4187.6915      1444.0867     -4187.6915     -5464.4193     -299.61187      1576.3397      5370.0595    
      3000   1.0127261      1.0036791      7.4473785     -2606.1513     -4126.7596      1520.6083     -4126.7596     -5397.6227     -303.04943      1573.9125      5642.2773    
      4000   1.0092296      0.99122407     7.1987708     -2604.0963     -4119.4545      1515.3582     -4119.4545     -5359.0006     -298.16402      1537.7102      5368.984     
      5000   1.0002464      0.99207703     7.332991      -2633.2547     -4135.1247      1501.8699     -4135.1247     -5399.3362     -302.79509      1567.0067      5488.4828    
      6000   0.98945249     1.0043076      7.0069523     -2733.4164     -4219.0793      1485.6629     -4219.0793     -5413.1476     -301.05486      1495.1232      5027.2132    
      7000   1.0027851      0.99479028     7.4346175     -2617.7606     -4123.4424      1505.6818     -4123.4424     -5416.5414     -298.0761       1591.1751      5616.5344    
      8000   1.0336937      1.0183187      7.6253768     -2562.5248     -4114.6159      1552.0911     -4114.6159     -5411.6927     -303.52306      1600.5998      5883.0479    
      9000   1.013989       0.99361197     7.5197107     -2559.076      -4081.5805      1522.5045     -4081.5805     -5370.497      -299.68814      1588.6046      5769.465     
     10000   1.0399462      1.0219519      7.4100406     -2567.5477     -4129.0269      1561.4792     -4129.0269     -5403.7088     -299.83971      1574.5216      5639.5269    
     11000   1.0130366      1.0152458      7.3271124     -2664.4966     -4185.5711      1521.0745     -4185.5711     -5447.6479     -304.84421      1566.921       5450.7299    
     12000   0.97527491     0.98403107     7.4927144     -2658.1853     -4122.5605      1464.3753     -4122.5605     -5425.6113     -295.81282      1598.8636      5640.4556    
     13000   1.0227047      1.0170242      7.7404572     -2591.4175     -4127.0086      1535.5912     -4127.0086     -5470.5097     -300.86265      1644.3637      5981.6137    
     14000   0.99409372     0.99751121     7.4637714     -2607.4385     -4100.0702      1492.6317     -4100.0702     -5371.6758     -303.7262       1575.3318      5659.1463    
     15000   1.012529       1.014854       7.3599833     -2572.0144     -4092.3266      1520.3122     -4092.3266     -5347.0978     -295.52065      1550.2918      5579.6186    
     16000   0.95405851     0.98382448     7.5104375     -2637.1891     -4069.7079      1432.5189     -4069.7079     -5361.0362     -298.94996      1590.2782      5681.0813    
     17000   1.0034275      1.0086043      7.2204671     -2620.7885     -4127.4349      1506.6463     -4127.4349     -5359.708      -299.7021       1531.9752      5376.3218    
     18000   1.0103065      0.99563162     7.5203433     -2605.7773     -4122.7524      1516.9751     -4122.7524     -5416.0753     -298.59838      1591.9212      5723.4643    
     19000   0.99717862     1.0078735      7.6386108     -2607.2998     -4104.5635      1497.2637     -4104.5635     -5422.4509     -301.94462      1619.832       5852.9303    
     20000   1.0285646      1.006017       7.4390102     -2594.0327     -4138.4224      1544.3897     -4138.4224     -5397.3217     -302.12352      1561.0229      5645.1275    
     21000   1.0367494      1.0292674      7.4371368     -2619.12       -4175.7991      1556.6792     -4175.7991     -5441.5703     -298.64483      1564.416       5617.9654    
     22000   0.99539496     1.003408       7.426924      -2711.1297     -4205.7153      1494.5855     -4205.7153     -5501.034      -299.56816      1594.8869      5514.6443    
     23000   0.96726809     0.97481117     7.5195107     -2750.3613     -4202.7144      1452.353      -4202.7144     -5504.359      -300.51466      1602.1593      5577.9581    
     24000   0.99821265     1.0248201      7.4396663     -2696.3346     -4195.1509      1498.8163     -4195.1509     -5484.3679     -295.65951      1584.8765      5543.5523    
     25000   1.0169574      0.99342298     7.6550432     -2601.2848     -4128.2463      1526.9616     -4128.2463     -5451.1004     -299.39898      1622.253       5877.1452    
     26000   0.97894188     0.98434871     7.3333031     -2760.8319     -4230.7132      1469.8812     -4230.7132     -5513.8663     -303.31916      1586.4723      5361.2512    
     27000   1.0122409      1.0128208      7.1630827     -2694.8808     -4214.7605      1519.8797     -4214.7605     -5445.2112     -299.60618      1530.0569      5238.6728    
     28000   1.0106275      0.99475696     7.5908979     -2602.9061     -4120.3633      1517.4573     -4120.3633     -5426.495      -299.46703      1605.5987      5804.4791    
     29000   1.0098386      0.99681058     7.2830604     -2684.9529     -4201.2255      1516.2726     -4201.2255     -5450.2858     -303.329        1552.3893      5381.4834    
     30000   1.0557148      1.0187419      7.7600855     -2547.778      -4132.9338      1585.1558     -4132.9338     -5456.4548     -303.57104      1627.0921      6046.9928    
     31000   1.0206309      1.0099964      7.8366522     -2569.9597     -4102.437       1532.4773     -4102.437      -5475.4254     -301.21692      1674.2053      6109.6135    
     32000   1.0107433      0.991416       7.7356879     -2554.396      -4072.0271      1517.6311     -4072.0271     -5396.4083     -299.57311      1623.9544      6013.353     
     33000   1.0255355      1.0172163      7.7923964     -2556.3328     -4096.1744      1539.8416     -4096.1744     -5446.0267     -298.83692      1648.6893      6074.2243    
     34000   0.98771751     0.98096772     7.5783721     -2646.3354     -4129.3933      1483.0578     -4129.3933     -5444.65       -304.31795      1619.5747      5747.1766    
     35000   0.98469773     0.99896552     7.2177849     -2718.3074     -4196.8311      1478.5236     -4196.8311     -5430.767      -300.95989      1534.8959      5275.8322    
     36000   1.0062538      0.99787886     7.3690467     -2672.9411     -4183.8312      1510.8901     -4183.8312     -5457.008      -297.47254      1570.6494      5488.7302    
     37000   0.96110366     1.0153075      7.2639465     -2707.9736     -4151.0707      1443.0971     -4151.0707     -5408.6884     -301.74056      1559.3583      5337.2929    
     38000   0.97875775     0.99959545     7.0867275     -2750.6933     -4220.2981      1469.6048     -4220.2981     -5442.0049     -301.24858      1522.9554      5098.2922    
     39000   0.99387253     1.0092553      7.387596      -2647.3677     -4139.6673      1492.2996     -4139.6673     -5410.9465     -297.21716      1568.4964      5534.8482    
     40000   1.0139697      0.98779736     7.3111184     -2640.0756     -4162.551       1522.4755     -4162.551      -5419.1758     -301.83136      1558.4561      5457.4366    
     41000   0.98669464     1.0064836      7.4284453     -2633.6465     -4115.1685      1481.522      -4115.1685     -5400.2906     -300.27608      1585.3982      5593.8124    
     42000   1.008817       0.99892308     7.5851673     -2681.8326     -4196.5712      1514.7387     -4196.5712     -5515.8439     -301.14141      1620.4141      5719.2056    
     43000   1.0073593      0.98657807     7.4010423     -2620.7697     -4133.3196      1512.5499     -4133.3196     -5414.4807     -298.2515       1579.4126      5576.3388    
     44000   1.0288003      1.0195294      7.3551857     -2644.1697     -4188.9133      1544.7436     -4188.9133     -5457.4951     -299.74688      1568.3287      5502.1498    
     45000   1.0538217      1.0248298      7.2006365     -2675.1501     -4257.4634      1582.3133     -4257.4634     -5490.7076     -300.16613      1533.4103      5299.9966    
     46000   1.0236608      1.014288       7.1509151     -2655.4534     -4192.4801      1537.0267     -4192.4801     -5420.931      -303.42098      1531.8719      5264.6238    
     47000   0.97591788     0.96503345     7.8225992     -2573.0643     -4038.405       1465.3407     -4038.405      -5399.0483     -295.95394      1656.5973      6090.9443    
     48000   1.0162042      1.0057699      7.4373839     -2567.818      -4093.6486      1525.8306     -4093.6486     -5354.67       -300.65433      1561.6757      5669.541     
     49000   0.97436387     0.97157361     7.3176775     -2734.2693     -4197.2767      1463.0074     -4197.2767     -5466.0008     -300.40519      1569.1293      5370.5075    
     50000   0.999681       1.0067448      7.3707472     -2711.7042     -4212.7252      1501.021      -4212.7252     -5496.0963     -301.54821      1584.9193      5451.8505    
     51000   1.0079947      1.0203828      7.7730065     -2574.7249     -4088.229       1513.5041     -4088.229      -5430.6069     -295.16145      1637.5393      6034.3567    
     52000   0.99707685     1.0083528      7.2554642     -2689.9907     -4187.1015      1497.1109     -4187.1015     -5440.2117     -303.1918       1556.302       5345.8811    
     53000   1.0227494      1.0187628      7.1270545     -2667.3025     -4202.9608      1535.6583     -4202.9608     -5420.993      -297.80529      1515.8375      5226.3476    
     54000   1.0069658      1.0211729      7.6735364     -2602.8121     -4114.7712      1511.9591     -4114.7712     -5438.5991     -303.83376      1627.6617      5896.1003    
     55000   1.0191873      1.020632       7.5431959     -2627.3075     -4157.6172      1530.3097     -4157.6172     -5451.579      -301.92761      1595.8894      5727.2448    
     56000   1.0016674      0.98710579     7.4676155     -2635.9581     -4139.9617      1504.0035     -4139.9617     -5419.1177     -298.77803      1577.934       5634.8842    
     57000   1.0295093      1.0111675      7.527534      -2577.5071     -4123.3154      1545.8083     -4123.3154     -5418.3931     -300.46952      1595.5471      5759.6986    
     58000   1.0044878      1.0066566      7.7823658     -2526.8301     -4035.0686      1508.2385     -4035.0686     -5358.6283     -298.53808      1622.0978      6092.6175    
     59000   1.0210599      1.0083586      7.4090028     -2616.9298     -4150.0513      1533.1215     -4150.0513     -5413.9212     -297.27482      1561.1447      5588.9953    
     60000   1.0059574      1.0022927      7.4961159     -2623.9562     -4134.4012      1510.445      -4134.4012     -5427.7497     -300.86038      1594.2088      5678.4522    
     61000   1.0040233      0.99822103     7.1478877     -2673.1359     -4180.677       1507.541      -4180.677      -5396.9575     -301.28973      1517.5703      5243.5882    
     62000   1.0031889      1.00636        7.469598      -2643.6438     -4149.9319      1506.2881     -4149.9319     -5436.7064     -298.45248      1585.227       5629.3943    
     63000   1.0127151      1.0085928      7.5191563     -2590.3119     -4110.9037      1520.5918     -4110.9037     -5412.111      -300.20761      1601.4149      5737.615     
     64000   1.01865        1.0049667      7.4816411     -2670.2728     -4199.7758      1529.5029     -4199.7758     -5488.4828     -298.30075      1587.0078      5616.1037    
     65000   0.98477922     0.9990359      6.9670975     -2726.4222     -4205.0681      1478.646      -4205.0681     -5394.7154     -298.15526      1487.8025      4990.0658    
     66000   0.98984869     1.0121305      7.477986      -2610.6113     -4096.8691      1486.2578     -4096.8691     -5391.7112     -292.94397      1587.7861      5671.717     
     67000   0.99566997     0.97187383     7.4588678     -2643.6676     -4138.6661      1494.9985     -4138.6661     -5434.7308     -297.5449       1593.6096      5617.4861    
     68000   0.98661824     0.99513794     7.1495871     -2696.5946     -4178.0019      1481.4073     -4178.0019     -5411.322      -300.40897      1533.7291      5222.0118    
     69000   1.0001894      0.99662633     7.5126856     -2619.8116     -4121.5961      1501.7844     -4121.5961     -5427.6779     -299.52421      1605.606       5700.9486    
     70000   1.0050493      1.0187512      7.3536395     -2733.8988     -4242.9803      1509.0815     -4242.9803     -5502.6839     -303.96686      1563.6705      5410.7081    
     71000   0.98985929     1.0087885      7.5437028     -2640.9341     -4127.2078      1486.2737     -4127.2078     -5418.3686     -303.19777      1594.3586      5714.1796    
     72000   1.0391664      1.0145842      7.696991      -2559.8484     -4120.1567      1560.3083     -4120.1567     -5451.519      -300.59295      1631.9552      5965.0414    
     73000   1.0202435      1.0063998      7.5679018     -2592.4123     -4124.3079      1531.8956     -4124.3079     -5411.0727     -300.60972      1587.3746      5789.5033    
     74000   1.0733912      1.0213403      7.4721045     -2506.4375     -4118.1344      1611.6969     -4118.1344     -5395.3106     -302.35969      1579.536       5769.3767    
     75000   1.0233334      1.0186738      7.2704758     -2664.8873     -4201.4225      1536.5352     -4201.4225     -5436.0112     -304.93063      1539.5193      5387.6107    
     76000   1.0025531      1.0280374      7.4708701     -2650.2653     -4155.5988      1505.3334     -4155.5988     -5443.2378     -302.03369      1589.6727      5624.1816    
     77000   1.0341437      0.99587565     7.2754559     -2573.6664     -4126.4331      1552.7668     -4126.4331     -5357.6188     -301.06954      1532.2552      5484.3474    
     78000   1.0080426      0.99991633     7.3223913     -2671.2057     -4184.7817      1513.5759     -4184.7817     -5450.0763     -300.88806      1566.1827      5438.7919    
     79000   1.0016026      1.0042859      7.469391      -2568.641      -4072.5473      1503.9062     -4072.5473     -5336.9778     -301.86296      1566.2934      5704.1678    
     80000   1.0099085      0.99792613     7.1484165     -2660.0512     -4176.4288      1516.3776     -4176.4288     -5403.277      -300.38128      1527.2295      5257.2587    
     81000   1.0071783      1.0147021      7.4300393     -2625.9442     -4138.2225      1512.2783     -4138.2225     -5410.6124     -298.56841      1570.9583      5603.2801    
     82000   0.99573559     0.99840565     7.6536188     -2695.7434     -4190.8403      1495.097      -4190.8403     -5522.1        -301.5127       1632.7723      5781.109     
     83000   1.035642       1.005882       7.444484      -2570.9109     -4125.9274      1555.0165     -4125.9274     -5404.9599     -299.07857      1578.1111      5674.3119    
     84000   0.96807998     0.97763198     7.6356712     -2656.8435     -4110.4156      1453.5721     -4110.4156     -5413.0269     -304.04893      1606.6602      5800.1309    
     85000   1.0032743      0.98999291     7.415119      -2700.218      -4206.6344      1506.4164     -4206.6344     -5486.7963     -303.81831      1583.9803      5512.4812    
     86000   1.0062093      1.0092217      7.4263479     -2679.3694     -4190.1927      1510.8233     -4190.1927     -5459.0152     -298.80089      1567.6234      5545.7666    
     87000   1.0127808      0.98323341     7.4027372     -2605.508      -4126.1983      1520.6903     -4126.1983     -5395.6437     -301.73308      1571.1785      5593.4777    
     88000   0.99673413     0.98561207     7.8026996     -2598.7303     -4095.3266      1496.5963     -4095.3266     -5443.989      -297.45109      1646.1135      6043.2382    
     89000   0.99966121     0.99156235     7.6813586     -2615.9024     -4116.8937      1500.9913     -4116.8937     -5446.8884     -298.35555      1628.3502      5891.6735    
     90000   1.03485        1.02955        7.486168      -2632.3062     -4186.1336      1553.8273     -4186.1336     -5476.7808     -300.89544      1591.5427      5659.0841    
     91000   0.98405343     0.99147375     7.0885527     -2662.3462     -4139.9025      1477.5562     -4139.9025     -5357.2459     -291.75242      1509.0959      5188.6608    
     92000   0.99064749     1.0072828      7.363495      -2668.1416     -4155.5988      1487.4572     -4155.5988     -5429.0671     -302.21298      1575.6813      5487.3809    
     93000   1.0500854      1.0222728      7.3541663     -2570.142      -4146.8452      1576.7032     -4146.8452     -5403.0164     -300.85912      1557.0303      5575.0484    
     94000   0.96147318     0.97959795     7.3744816     -2738.1685     -4181.8205      1443.652      -4181.8205     -5457.3651     -303.32114      1578.8658      5429.5224    
     95000   0.99636172     0.99976379     7.4617396     -2652.0035     -4148.0407      1496.0371     -4148.0407     -5445.2557     -298.40686      1595.6219      5612.3309    
     96000   0.99142044     0.99891598     7.5401462     -2673.1423     -4161.76        1488.6178     -4161.76       -5461.5469     -302.38561      1602.1724      5678.0323    
     97000   0.98210753     0.98962682     7.2453983     -2662.9108     -4137.5453      1474.6345     -4137.5453     -5391.1103     -297.04703      1550.6121      5361.8123    
     98000   1.0072325      0.99235073     7.4504836     -2639.3382     -4151.6978      1512.3596     -4151.6978     -5434.3175     -297.69325      1580.313       5612.5295    
     99000   1.0158223      1.0149737      7.4533367     -2642.3895     -4167.6468      1525.2572     -4167.6468     -5435.3517     -303.79469      1571.4996      5612.6381    
    100000   0.96191273     0.97635969     7.7133393     -2659.7171     -4104.0291      1444.312      -4104.0291     -5440.476      -301.80484      1638.2517      5883.2794    
    101000   0.96989008     0.99605763     7.54582       -2720.9525     -4177.2424      1456.29       -4177.2424     -5498.49       -299.16849      1620.416       5636.5061    
    102000   1.0067817      1.0217853      7.115416      -2735.814      -4247.4967      1511.6827     -4247.4967     -5458.0151     -302.01485      1512.5333      5144.9457    
    103000   1.0089887      0.99408641     7.4976039     -2602.3023     -4117.2988      1514.9965     -4117.2988     -5404.1967     -295.6369       1582.5347      5701.754     
    104000   0.99661575     1.002362       7.4682202     -2682.0507     -4178.4692      1496.4185     -4178.4692     -5459.9854     -302.06865      1583.5848      5589.4614    
    105000   1.0141373      1.0213428      7.0090499     -2642.1926     -4164.9197      1522.7271     -4164.9197     -5361.3109     -299.4072       1495.7985      5120.7602    
    106000   0.92138135     0.96343787     7.1302806     -2786.2073     -4169.6614      1383.4541     -4169.6614     -5399.9539     -301.53037      1531.8229      5111.0159    
    107000   1.0361646      1.010014       7.7611687     -2574.8235     -4130.6247      1555.8011     -4130.6247     -5477.5045     -304.64129      1651.5211      6021.1469    
    108000   1.0147097      0.99609239     7.5033092     -2580.6848     -4104.2714      1523.5866     -4104.2714     -5386.3849     -297.9219       1580.0353      5729.6904    
    109000   1.0191854      1.0055072      7.2843653     -2639.0489     -4169.3559      1530.3069     -4169.3559     -5421.1623     -296.35579      1548.1622      5428.8325    
    110000   1.0161696      1.0129941      7.3671113     -2613.5745     -4139.3532      1525.7787     -4139.3532     -5393.4944     -299.87002      1554.0113      5545.9532    
    111000   1.01177        1.0045421      7.7449232     -2577.258      -4096.4307      1519.1727     -4096.4307     -5429.8368     -299.4637       1632.8698      6000.7197    
    112000   0.97973317     0.98986101     7.0091801     -2794.7699     -4265.8393      1471.0694     -4265.8393     -5485.9832     -300.12619      1520.2702      4968.3271    
    113000   1.039676       1.0120842      7.3618924     -2684.6138     -4245.6873      1561.0735     -4245.6873     -5505.9968     -303.5388       1563.8482      5469.1338    
    114000   0.96687685     0.98289176     7.4265544     -2720.7532     -4172.5188      1451.7656     -4172.5188     -5459.2383     -303.07102      1589.7905      5504.6114    
    115000   0.98702491     0.97402626     7.5789018     -2647.3514     -4129.3693      1482.0179     -4129.3693     -5434.0299     -302.71862      1607.3792      5746.7474    
    116000   1.0510763      1.0172727      7.6110618     -2574.6575     -4152.8486      1578.1911     -4152.8486     -5464.3609     -303.34678      1614.8591      5855.0605    
    117000   1.0135526      0.99503582     7.3087296     -2592.7107     -4114.5599      1521.8493     -4114.5599     -5350.3608     -296.28493      1532.0858      5502.1558    
    118000   1.0285147      0.97700602     7.3061185     -2604.0574     -4148.3722      1544.3148     -4148.3722     -5407.5466     -295.91322      1555.0876      5487.9172    
    119000   1.0150786      0.99494476     7.3843357     -2637.5616     -4161.7022      1524.1406     -4161.7022     -5443.618      -292.89385      1574.8097      5541.0432    
    120000   0.98505878     0.95705743     7.6084479     -2672.4325     -4151.4982      1479.0658     -4151.4982     -5469.7776     -302.4142       1620.6936      5754.3903    
    121000   1.038923       1.0307003      7.2232829     -2637.2419     -4197.1848      1559.9428     -4197.1848     -5439.5482     -301.19931      1543.5628      5362.9871    
    122000   1.0288473      1.0157265      7.2107914     -2668.2541     -4213.0682      1544.8142     -4213.0682     -5448.2923     -298.85148      1534.0755      5318.1398    
    123000   0.99881045     0.99877304     7.2160806     -2726.8124     -4226.5263      1499.7139     -4226.5263     -5472.0469     -299.97584      1545.4964      5265.4395    
    124000   1.0022342      0.99961767     7.4843018     -2635.8843     -4140.739       1504.8547     -4140.739      -5421.7163     -295.76273      1576.74        5653.4391    
    125000   1.0285542      1.0289275      7.8025937     -2523.7639     -4068.138       1544.3741     -4068.138      -5416.9272     -299.71871      1648.5079      6118.0874    
    126000   1.0101495      1.0055634      7.5031581     -2680.6267     -4197.3661      1516.7395     -4197.3661     -5501.9912     -302.4401       1607.0651      5629.5813    
    127000   1.0383409      1.0323917      7.2553145     -2635.6838     -4194.7527      1559.0689     -4194.7527     -5427.8808     -300.98659      1534.1147      5400.0222    
    128000   1.0043271      0.9958363      7.5515428     -2641.3632     -4149.3603      1507.9972     -4149.3603     -5466.1511     -302.95492      1619.7457      5722.4338    
    129000   0.992517       0.96599035     7.5817673     -2689.8214     -4180.0857      1490.2643     -4180.0857     -5500.2974     -300.67224      1620.884       5707.4511    
    130000   0.96341907     0.9792431      7.3959165     -2685.7316     -4132.3053      1446.5737     -4132.3053     -5414.6925     -296.86993      1579.2571      5505.6997    
    131000   1.0127815      0.9918839      7.4605831     -2587.0966     -4107.7879      1520.6914     -4107.7879     -5379.8504     -306.49899      1578.5614      5675.957     
    132000   0.99870088     1.007929       7.3630526     -2679.5582     -4179.1075      1499.5494     -4179.1075     -5443.3766     -301.47445      1565.7436      5475.4743    
    133000   1.0298791      0.98543079     7.6021612     -2565.7972     -4112.1607      1546.3634     -4112.1607     -5408.8539     -295.90452      1592.5978      5854.0627    
    134000   0.98422616     0.97964735     7.4874274     -2689.3705     -4167.1861      1477.8156     -4167.1861     -5473.903      -297.65995      1604.3769      5603.4147    
    135000   1.0165487      1.0094514      7.3399015     -2645.6314     -4171.9792      1526.3478     -4171.9792     -5427.7169     -300.36256      1556.1002      5483.7598    
    136000   1.0632791      1.0352905      7.3684366     -2503.8388     -4100.3524      1596.5135     -4100.3524     -5349.3831     -301.60879      1550.6395      5657.1568    
    137000   1.0321765      1.0126245      7.2284594     -2619.2004     -4169.0134      1549.813      -4169.0134     -5416.2186     -302.95164      1550.1568      5386.7619    
    138000   1.0181908      1.0285605      7.941961      -2559.0341     -4087.8475      1528.8134     -4087.8475     -5456.7138     -300.74007      1669.6064      6237.175     
    139000   1.0216694      1.0204297      7.330469      -2641.5445     -4175.5812      1534.0366     -4175.5812     -5426.7261     -298.05338      1549.1983      5477.3996    
    140000   1.00708        1.0064352      6.963508      -2675.676      -4187.8066      1512.1306     -4187.8066     -5372.096      -302.20797      1486.4973      5036.8363    
    141000   0.98110719     1.0000232      7.0445649     -2733.8372     -4206.9696      1473.1324     -4206.9696     -5420.912      -303.94412      1517.8865      5068.4506    
    142000   0.99116412     0.98556759     7.2142874     -2655.0232     -4143.2562      1488.2329     -4143.2562     -5368.9313     -298.19485      1523.87        5335.2427    
    143000   1.0485355      1.0161522      7.744476      -2560.7936     -4135.1697      1574.3761     -4135.1697     -5480.1416     -301.17357      1646.1455      6016.6887    
    144000   0.94698516     0.96830659     7.2747977     -2813.3505     -4235.2487      1421.8982     -4235.2487     -5506.5527     -303.27686      1574.5809      5243.9343    
    145000   1.0263892      1.0068586      7.5618287     -2536.071      -4077.1943      1541.1233     -4077.1943     -5356.6456     -299.15737      1578.6087      5839.1183    
    146000   1.0061085      0.99820209     7.1799267     -2672.6904     -4183.3623      1510.6719     -4183.3623     -5420.8261     -299.28207      1536.7459      5279.519     
    147000   1.0428277      1.0443716      7.3639895     -2602.2105     -4168.0163      1565.8058     -4168.0163     -5409.0078     -302.65974      1543.6512      5553.8597    
    148000   0.96784252     0.99241215     7.1057438     -2696.2315     -4149.447       1453.2155     -4149.447      -5376.0503     -299.22577      1525.8291      5173.8157    
    149000   0.99928434     0.99141676     7.2194942     -2676.858      -4177.2834      1500.4254     -4177.2834     -5419.8045     -304.06297      1546.584       5319.1747    
    150000   0.99353809     1.0139702      7.3644694     -2678.9131     -4170.7105      1491.7974     -4170.7105     -5439.4921     -302.71354      1571.4951      5477.6886    
    151000   1.0255987      1.0141643      7.5102277     -2569.389      -4109.3254      1539.9364     -4109.3254     -5399.2895     -296.44709      1586.4112      5748.649     
    152000   1.0099092      0.98970824     7.806208      -2536.1991     -4052.5778      1516.3787     -4052.5778     -5388.7188     -300.66413      1636.8052      6109.6552    
    153000   0.99107918     1.0020959      7.2744201     -2678.085      -4166.1904      1488.1054     -4166.1904     -5431.9462     -301.444        1567.1998      5378.7815    
    154000   1.0145196      1.0163351      7.257547      -2653.6936     -4176.9948      1523.3012     -4176.9948     -5429.5322     -300.11385      1552.6513      5384.4849    
    155000   0.97191323     0.97702182     7.76048       -2675.8322     -4135.1599      1459.3277     -4135.1599     -5476.6025     -300.74664      1642.1892      5919.3755    
    156000   1.0031011      0.9981904      7.333868      -2680.4388     -4186.5951      1506.1562     -4186.5951     -5457.0033     -301.46571      1571.8739      5442.2699    
    157000   1.0189385      1.0343683      7.3809378     -2637.1778     -4167.114       1529.9362     -4167.114      -5422.1432     -301.19573      1556.2249      5537.6636    
    158000   0.99197125     0.99031611     7.629389      -2607.2564     -4096.7012      1489.4448     -4096.7012     -5414.6942     -295.5015       1613.4944      5842.76      
    159000   1.0106293      1.0158843      7.392798      -2679.8625     -4197.3224      1517.4599     -4197.3224     -5467.9439     -304.20556      1574.8271      5508.1149    
    160000   1.0124031      1.0067168      7.4679875     -2681.9966     -4202.1198      1520.1232     -4202.1198     -5490.4178     -301.81392      1590.1118      5589.2577    
    161000   0.99873573     0.98105322     7.1543172     -2694.2376     -4193.8393      1499.6017     -4193.8393     -5423.2511     -297.04904      1526.4608      5229.6076    
    162000   1.0584176      1.039759       7.4358458     -2554.755      -4143.969       1589.214      -4143.969      -5410.447      -298.01591      1564.4939      5680.9004    
    163000   1.0378486      1.0015747      7.5108852     -2623.0958     -4181.4254      1558.3296     -4181.4254     -5467.6469     -304.35551      1590.577       5695.6705    
    164000   1.0028412      1.0158484      7.8632203     -2553.2525     -4059.0185      1505.766      -4059.0185     -5422.1007     -301.68335      1664.7656      6155.7465    
    165000   0.9590112      0.97787149     7.1859917     -2779.5333     -4219.4886      1439.9553     -4219.4886     -5458.9814     -300.21845      1539.7113      5179.3935    
    166000   0.99150003     0.99407044     7.524234      -2672.5149     -4161.2522      1488.7373     -4161.2522     -5447.6927     -301.60356      1588.0441      5661.0359    
    167000   0.97636657     0.99378336     7.2277327     -2712.4007     -4178.4151      1466.0144     -4178.4151     -5433.9776     -298.01915      1553.5816      5292.7567    
    168000   0.9751895      1.0006128      7.297138      -2689.5619     -4153.809       1464.247      -4153.809      -5415.1744     -291.41073      1552.7762      5392.4662    
    169000   1.034171       1.0393769      7.7349957     -2600.6507     -4153.4583      1552.8077     -4153.4583     -5488.7368     -302.38199      1637.6604      5966.3317    
    170000   0.99831052     1.0003845      7.9341249     -2602.7141     -4101.6773      1498.9632     -4101.6773     -5474.4968     -300.9222       1673.7417      6184.816     
    171000   0.99300249     1.006753       7.2878496     -2658.1106     -4149.1039      1490.9932     -4149.1039     -5390.8734     -301.2931       1543.0626      5413.6299    
    172000   0.95176693     0.98230062     7.5365037     -2670.7182     -4099.7962      1429.078      -4099.7962     -5397.3514     -296.54462      1594.0998      5676.422     
    173000   0.98557954     1.0028203      7.7570989     -2604.7811     -4084.6287      1479.8477     -4084.6287     -5420.5535     -295.22578      1631.1506      5986.6819    
    174000   0.99611393     0.98633897     7.3369717     -2718.6308     -4214.2959      1495.6651     -4214.2959     -5486.6193     -299.3533       1571.6768      5407.5155    
    175000   1.0097306      1.0286546      7.5227403     -2556.6597     -4072.7703      1516.1105     -4072.7703     -5366.2618     -303.80181      1597.2934      5775.2367    
    176000   0.99273811     0.99143167     7.4677996     -2666.5215     -4157.1177      1490.5963     -4157.1177     -5429.1362     -299.68039      1571.6989      5604.5248    
    177000   0.98498156     0.99645864     7.4499961     -2680.5281     -4159.4779      1478.9498     -4159.4779     -5449.7971     -297.76031      1588.0795      5570.7996    
    178000   0.99276428     1.001743       7.4933483     -2600.8385     -4091.4741      1490.6356     -4091.4741     -5379.6997     -299.94906      1588.1747      5698.5045    
    179000   1.0294996      1.0032856      7.7156678     -2589.151      -4134.9447      1545.7937     -4134.9447     -5457.8164     -305.776        1628.6477      5956.4245    
    180000   1.0077634      0.99906435     7.59818       -2571.0191     -4084.1759      1513.1568     -4084.1759     -5380.5825     -303.62508      1600.0317      5844.4314    
    181000   1.0153156      0.99535062     7.3502147     -2552.1184     -4076.6148      1524.4964     -4076.6148     -5333.0322     -298.0249       1554.4423      5588.6954    
    182000   1.0163095      1.0126288      6.9152031     -2650.6563     -4176.645       1525.9887     -4176.645      -5349.7129     -299.2423       1472.3102      5008.3553    
    183000   0.99111026     1.0089094      7.4785777     -2698.4406     -4186.5927      1488.1521     -4186.5927     -5465.2909     -301.95299      1580.6512      5584.543     
    184000   1.008211       1.0204972      7.3300923     -2609.0417     -4122.8705      1513.8288     -4122.8705     -5375.2646     -298.6613       1551.0553      5509.4853    
    185000   1.0032072      1.0320185      7.1538458     -2707.7413     -4214.057       1506.3156     -4214.057      -5439.0613     -303.18479      1528.1891      5215.5819    
    186000   0.97370201     0.96816837     7.3457442     -2597.7228     -4059.7364      1462.0136     -4059.7364     -5321.9685     -296.08258      1558.3147      5538.1396    
    187000   0.99250499     0.99248936     7.3370205     -2648.0125     -4138.2588      1490.2462     -4138.2588     -5407.8824     -298.40203      1568.0257      5478.1879    
    188000   1.0310169      1.0086118      7.1980739     -2657.0856     -4205.1574      1548.0718     -4205.1574     -5443.7573     -302.78366      1541.3835      5315.2228    
    189000   1.0698957      1.0533894      7.4463234     -2530.1651     -4136.6135      1606.4484     -4136.6135     -5402.2991     -299.11844      1564.804       5717.0949    
    190000   1.0044889      1.0014317      7.4611576     -2640.2689     -4148.5089      1508.24       -4148.5089     -5429.7478     -302.48704      1583.7259      5623.421     
    191000   0.98371955     1.0069553      7.1774531     -2668.0557     -4145.1106      1477.0549     -4145.1106     -5366.8542     -300.13444      1521.878       5281.4139    
    192000   1.0048904      1.0068767      7.7035539     -2612.258      -4121.101       1508.843      -4121.101      -5452.5668     -299.06251      1630.5282      5919.9006    
    193000   1.004517       0.99597351     7.2445368     -2634.9791     -4143.2613      1508.2822     -4143.2613     -5379.2734     -300.66411      1536.6762      5388.79      
    194000   1.0156804      1.025084       7.3046796     -2622.9976     -4148.0416      1525.0441     -4148.0416     -5391.9335     -303.71341      1547.6053      5467.3833    
    195000   0.96257758     0.99192142     7.3224457     -2713.2281     -4158.5384      1445.3102     -4158.5384     -5426.4266     -300.70536      1568.5936      5396.8297    
    196000   1.0225204      1.0110169      7.0966948     -2648.3337     -4183.6481      1535.3144     -4183.6481     -5407.9706     -296.92222      1521.2448      5211.6913    
    197000   1.0217157      1.0238839      7.3794572     -2636.2381     -4170.3442      1534.1061     -4170.3442     -5428.2072     -301.29937      1559.1624      5536.9635    
    198000   1.0023979      1.0079467      7.1577064     -2673.373      -4178.4734      1505.1004     -4178.4734     -5402.5334     -302.1343       1526.1943      5254.226     
    199000   1.0019191      0.99279109     7.5228437     -2562.7306     -4067.1121      1504.3815     -4067.1121     -5345.5836     -301.51921      1579.9908      5769.2803    
    200000   0.9707523      0.99798153     7.5641156     -2648.7495     -4106.3341      1457.5846     -4106.3341     -5406.0101     -300.50002      1600.176       5728.9726    
    201000   1.0080966      0.98112978     7.5174979     -2625.1205     -4138.7775      1513.657      -4138.7775     -5439.9262     -295.61439      1596.7631      5700.9697    
    202000   1.0294355      0.99648612     7.3762293     -2706.6036     -4252.301       1545.6974     -4252.301      -5521.3364     -299.59695      1568.6324      5463.0229    
    203000   1.0590661      1.0109952      7.1463365     -2602.3158     -4192.5036      1590.1878     -4192.5036     -5391.1645     -301.61527      1500.2761      5312.6904    
    204000   0.97627664     1.0111106      7.4232289     -2711.0041     -4176.8835      1465.8794     -4176.8835     -5452.1907     -300.39273      1575.6999      5510.6773    
    205000   0.99887676     1.0098049      7.2609318     -2692.7095     -4192.5229      1499.8135     -4192.5229     -5449.7215     -301.47247      1558.671       5349.218     
    206000   1.0329644      0.99434948     7.3111045     -2583.3927     -4134.3887      1550.9961     -4134.3887     -5378.3248     -298.63605      1542.5721      5514.1041    
    207000   1.0130206      1.0024673      7.5525361     -2537.8491     -4058.8995      1521.0504     -4058.8995     -5371.9137     -292.2928       1605.3069      5827.048     
    208000   0.98715877     0.99767361     7.4870461     -2655.7646     -4137.9835      1482.2189     -4137.9835     -5411.1245     -301.1632       1574.3042      5636.5983    
    209000   1.0280111      1.0293838      7.2865512     -2551.9891     -4095.5478      1543.5587     -4095.5478     -5357.5666     -297.83974      1559.8585      5518.3134    
    210000   1.030054       1.0310599      7.3963358     -2555.5735     -4102.1996      1546.6261     -4102.1996     -5357.8265     -303.21625      1558.8432      5636.3222    
    211000   1.0057155      1.0249848      7.3753876     -2637.856      -4147.9379      1510.0819     -4147.9379     -5409.4106     -300.46492      1561.9377      5530.8383    
    212000   1.0107026      1.0044397      7.3861746     -2650.5872     -4168.1572      1517.57       -4168.1572     -5443.6029     -302.67471      1578.1205      5530.0543    
    213000   1.0100989      0.9918727      7.2488874     -2647.2458     -4163.9093      1516.6634     -4163.9093     -5406.5736     -300.15407      1542.8184      5381.3417    
    214000   1.0311301      1.0130756      7.7751194     -2478.3547     -4026.5965      1548.2418     -4026.5965     -5346.6127     -303.07085      1623.087       6133.0672    
    215000   0.97755094     0.9810409      7.4530891     -2673.9447     -4141.7374      1467.7927     -4141.7374     -5429.9203     -303.1243       1591.3072      5580.8088    
    216000   0.9698767      1.009369       7.4228002     -2712.7364     -4169.0062      1456.2699     -4169.0062     -5446.7138     -301.83839      1579.546       5508.4703    
    217000   1.0344323      1.0132407      7.470548      -2553.7425     -4106.9426      1553.2001     -4106.9426     -5383.2907     -301.03959      1577.3877      5720.3477    
    218000   1.0357685      1.027593       7.4641137     -2575.5477     -4130.7541      1555.2064     -4130.7541     -5409.737      -299.83973      1578.8226      5691.4162    
    219000   1.003818       1.0032811      7.443126      -2621.0562     -4128.289       1507.2327     -4128.289      -5416.7601     -296.11083      1584.582       5622.6625    
    220000   0.99872877     1.0156754      7.0523416     -2673.7612     -4173.3525      1499.5912     -4173.3525     -5364.9358     -300.4447       1492.028       5137.1398    
    221000   1.0011986      1.0015434      7.4788773     -2671.3362     -4174.6358      1503.2996     -4174.6358     -5470.2653     -299.73875      1595.3683      5611.9793    
    222000   1.0136019      1.0004115      7.5908932     -2611.3161     -4133.2394      1521.9233     -4133.2394     -5442.8585     -295.63119      1605.2503      5796.0638    
    223000   1.0524616      1.0126957      7.2335925     -2577.8066     -4158.0776      1580.2711     -4158.0776     -5389.2139     -299.29928      1530.4356      5433.841     
    224000   1.000008       0.99580691     7.3153838     -2593.3601     -4094.8722      1501.5121     -4094.8722     -5328.7709     -300.28945      1534.1882      5508.8763    
    225000   1.0117512      0.98967324     7.4205415     -2577.6157     -4096.7601      1519.1444     -4096.7601     -5360.5341     -299.05346      1562.8275      5641.0893    
    226000   0.9929068      1.0063901      7.3866166     -2646.0928     -4136.9424      1490.8496     -4136.9424     -5392.6718     -299.51664      1555.246       5535.0382    
    227000   1.0324917      1.044095       7.3457888     -2650.7826     -4201.0689      1550.2863     -4201.0689     -5459.3915     -304.79943      1563.122       5485.1292    
    228000   0.97195581     0.98484755     7.5631947     -2653.4154     -4112.8071      1459.3917     -4112.8071     -5426.1629     -296.71594      1610.0717      5723.2867    
    229000   1.0177437      0.99394529     7.341451      -2579.8777     -4108.0198      1528.1421     -4108.0198     -5374.3407     -288.88591      1555.2068      5551.2298    
    230000   0.98569616     0.99384798     7.9338877     -2660.3275     -4140.3503      1480.0228     -4140.3503     -5504.7988     -300.64979      1665.0983      6126.9399    
    231000   0.96205626     0.99179302     7.378718      -2750.6719     -4195.1994      1444.5275     -4195.1994     -5473.7135     -295.47585      1573.9899      5421.711     
    232000   1.0799715      1.038261       7.1881951     -2499.283      -4120.8602      1621.5772     -4120.8602     -5325.6772     -299.19623      1504.0133      5462.0841    
    233000   0.98355712     0.97041334     7.4297693     -2713.6        -4190.4111      1476.811      -4190.4111     -5471.9931     -303.33122      1584.9132      5515.3253    
    234000   1.0145124      1.0037537      7.2724605     -2721.6688     -4244.9592      1523.2903     -4244.9592     -5499.7318     -302.21195      1556.9846      5333.0273    
    235000   0.96212058     0.97389753     7.4661996     -2739.4701     -4184.0941      1444.624      -4184.0941     -5470.1225     -303.75681      1589.7851      5529.804     
    236000   1.0236504      1.0101179      7.2949818     -2561.846      -4098.857       1537.011      -4098.857      -5328.0224     -302.85852      1532.0239      5517.7939    
    237000   1.0184048      0.98084077     7.3564461     -2622.3793     -4151.5142      1529.1349     -4151.5142     -5406.2022     -299.2711       1553.9591      5525.336     
    238000   1.0249597      1.0112139      7.7680965     -2570.212      -4109.189       1538.977      -4109.189      -5446.1894     -300.28641      1637.2868      6033.4314    
    239000   1.0228154      1.0233831      7.6992475     -2583.2461     -4119.0033      1535.7572     -4119.0033     -5430.2651     -302.95346      1614.2153      5944.1429    
    240000   1.041039       1.0285551      7.4095621     -2615.8297     -4178.9498      1563.1201     -4178.9498     -5448.2733     -302.87476      1572.1982      5590.715     
    241000   0.95949666     0.97944516     7.2344578     -2712.545      -4153.2292      1440.6842     -4153.2292     -5408.5399     -296.02893      1551.3396      5300.0609    
    242000   0.95415933     0.97577776     6.8023195     -2838.5858     -4271.256       1432.6702     -4271.256      -5450.1579     -301.24219      1480.1441      4695.4004    
    243000   0.97798625     0.98294836     7.4002895     -2658.435      -4126.8814      1468.4464     -4126.8814     -5396.2151     -300.39438      1569.7281      5537.8397    
    244000   1.0043308      1.0034092      7.6430068     -2580.2678     -4088.2704      1508.0026     -4088.2704     -5395.6322     -295.91955      1603.2813      5884.8312    
    245000   0.976602       0.98190858     7.4052831     -2664.4086     -4130.7765      1466.3679     -4130.7765     -5402.5011     -302.46419      1574.1888      5537.3968    
    246000   1.0169235      1.0027431      7.272203      -2703.4755     -4230.3862      1526.9107     -4230.3862     -5477.345      -303.27545      1550.2343      5350.9355    
    247000   0.98869799     0.97911418     7.2808729     -2708.3731     -4192.9031      1484.53       -4192.9031     -5446.0621     -302.09953      1555.2585      5355.6404    
    248000   0.98896125     1.009164       7.2449042     -2651.4524     -4136.3777      1484.9253     -4136.3777     -5364.1134     -300.13587      1527.8716      5372.7235    
    249000   0.99580832     1.0138884      7.5781979     -2627.2964     -4122.5026      1495.2062     -4122.5026     -5422.6165     -301.54317      1601.6571      5766.0227    
    250000   0.97520346     0.98081754     7.534021      -2697.1191     -4161.3871      1464.268      -4161.3871     -5469.8827     -302.8008       1611.2965      5647.2714    
    251000   0.96365784     1.0036385      7.3630812     -2679.1183     -4126.0506      1446.9322     -4126.0506     -5404.9616     -300.34223      1579.2532      5475.9458    
    252000   0.94976132     0.9732654      7.0104385     -2688.2332     -4114.2998      1426.0666     -4114.2998     -5311.9358     -304.06097      1501.6969      5076.2576    
    253000   0.96660731     0.98584724     7.3299019     -2697.2877     -4148.6486      1451.3609     -4148.6486     -5415.1289     -301.36385      1567.8442      5421.0284    
    254000   0.92643267     0.96248297     7.3402762     -2790.8897     -4181.9283      1391.0386     -4181.9283     -5459.438      -302.77315      1580.2828      5338.9165    
    255000   1.0148278      1.0096011      7.785127      -2601.7348     -4125.4987      1523.7639     -4125.4987     -5459.945      -300.81678      1635.263       6020.771     
    256000   1.0048707      1.0039467      7.5399611     -2648.5938     -4157.4071      1508.8133     -4157.4071     -5458.3656     -304.35475      1605.3132      5702.3757    
    257000   1.0047611      1.0017596      7.0759921     -2718.8911     -4227.5399      1508.6487     -4227.5399     -5441.6516     -301.54253      1515.6542      5118.2043    
    258000   1.0593159      1.0225101      7.5013664     -2579.7025     -4170.2653      1590.5628     -4170.2653     -5462.2705     -301.62093      1593.6262      5728.5211    
    259000   1.0652984      1.0188217      7.3074174     -2496.4514     -4095.9968      1599.5455     -4095.9968     -5327.7507     -301.86547      1533.6193      5596.9618    
    260000   0.98506602     1.002522       7.3848688     -2596.0345     -4075.1111      1479.0766     -4075.1111     -5349.0101     -297.83113      1571.7301      5583.1608    
    261000   0.99240714     1.0080305      7.3804343     -2689.353      -4179.4523      1490.0993     -4179.4523     -5454.3148     -303.32501      1578.1875      5484.9308    
    262000   1.0451284      1.0372463      7.2348419     -2645.7014     -4214.9617      1569.2602     -4214.9617     -5455.6009     -302.09919      1542.7384      5367.3299    
    263000   1.0018571      0.98848078     7.2761687     -2587.0187     -4091.3071      1504.2885     -4091.3071     -5330.1566     -297.0516       1535.901       5471.7846    
    264000   1.0593932      1.0580249      7.2425222     -2583.4615     -4174.1405      1590.6789     -4174.1405     -5408.3466     -303.52661      1537.7327      5438.0761    
    265000   1.0055101      0.98751058     7.5506468     -2669.1601     -4178.9336      1509.7735     -4178.9336     -5484.149      -302.11845      1607.3338      5693.6444    
    266000   0.93740125     0.95550756     7.2695253     -2734.5438     -4142.0518      1407.508      -4142.0518     -5397.2129     -302.51626      1557.6774      5316.9015    
    267000   1.0270343      1.0034355      7.2154265     -2652.6351     -4194.727       1542.0919     -4194.727      -5420.1703     -297.87735      1523.3207      5338.8925    
    268000   1.007409       0.99945496     7.5115593     -2669.3061     -4181.9308      1512.6247     -4181.9308     -5486.1722     -300.92461      1605.166       5650.2067    
    269000   1.0103136      0.9925295      7.6517679     -2589.7366     -4106.7225      1516.9859     -4106.7225     -5425.6911     -301.23018      1620.1988      5885.0658    
    270000   1.0228598      0.99944958     7.5291497     -2617.5648     -4153.3888      1535.824      -4153.3888     -5445.5412     -299.48047      1591.6329      5721.4305    
    271000   0.99263246     0.9874719      7.4401258     -2649.3483     -4139.7859      1490.4376     -4139.7859     -5429.5146     -301.47118      1591.1998      5591.0475    
    272000   1.0109181      0.99538412     7.3236736     -2650.0459     -4167.9395      1517.8935     -4167.9395     -5421.6701     -303.015        1556.7456      5461.3719    
    273000   1.0207102      1.0168871      7.3231831     -2636.2998     -4168.8961      1532.5964     -4168.8961     -5431.8158     -301.76365      1564.6834      5474.5749    
    274000   1.0353011      1.0210697      7.2866375     -2652.8031     -4207.3078      1554.5047     -4207.3078     -5451.8853     -301.30821      1545.8858      5417.5949    
    275000   0.9499144      0.96560495     7.3568308     -2703.1384     -4129.4349      1426.2965     -4129.4349     -5407.3028     -299.61746      1577.4853      5445.0031    
    276000   0.9879804      0.98593737     7.4269433     -2616.3146     -4099.7671      1483.4526     -4099.7671     -5388.4354     -300.1668       1588.835       5609.4809    
    277000   1.00686        1.0114014      7.3220522     -2628.078      -4139.8783      1511.8003     -4139.8783     -5393.4147     -300.18731      1553.7236      5481.5441    
    278000   1.0012345      1.0110838      7.3325901     -2625.3818     -4128.7354      1503.3536     -4128.7354     -5378.209      -300.43997      1549.9136      5495.9116    
    279000   1.0150874      1.015525       7.3601753     -2663.2615     -4187.4151      1524.1537     -4187.4151     -5443.267      -305.30361      1561.1555      5488.5842    
    280000   0.99882406     1.021622       7.3572328     -2696.2148     -4195.9491      1499.7343     -4195.9491     -5475.223      -297.60111      1576.8749      5452.3719    
    281000   1.0123924      1.0081348      7.3321204     -2622.2337     -4142.3409      1520.1072     -4142.3409     -5400.6056     -299.71355      1557.9783      5498.5394    
    282000   0.98710334     0.9765854      7.8524657     -2631.7572     -4113.8929      1482.1357     -4113.8929     -5488.9741     -300.9788       1676.06        6065.3303    
    283000   1.0257457      1.0248702      7.430929      -2563.3489     -4103.506       1540.1572     -4103.506      -5378.4964     -295.73457      1570.725       5666.8609    
    284000   0.9946267      1.0027966      7.3552822     -2692.5722     -4186.0042      1493.432      -4186.0042     -5464.6833     -299.97981      1578.6589      5453.8541    
    285000   1.0176433      1.0021033      7.9727911     -2538.4158     -4066.4071      1527.9914     -4066.4071     -5450.5875     -296.08726      1680.2677      6291.9395    
    286000   0.99833162     1.0184926      7.4846557     -2623.4219     -4122.4168      1498.9949     -4122.4168     -5424.1416     -299.03836      1600.7631      5666.2934    
    287000   1.0027932      1.0059478      7.5268496     -2683.5831     -4189.2771      1505.694      -4189.2771     -5489.0669     -302.82514      1602.6149      5652.8647    
    288000   0.99579159     0.98833988     7.3464548     -2671.9198     -4167.1009      1495.1811     -4167.1009     -5432.1462     -301.49705      1566.5424      5464.7296    
    289000   0.97183399     0.99151683     7.4892208     -2647.4906     -4106.6993      1459.2087     -4106.6993     -5409.9426     -302.64769      1605.891       5647.281     
    290000   1.0121573      1.0065919      7.7311431     -2600.5544     -4120.3086      1519.7542     -4120.3086     -5455.0657     -298.22494      1632.9821      5962.1609    
    291000   1.0032792      0.99083504     6.9911535     -2691.2339     -4197.6577      1506.4237     -4197.6577     -5404.1981     -298.48056      1505.021       5051.8975    
    292000   1.0188144      1.003056       7.2723121     -2689.3282     -4219.078       1529.7498     -4219.078      -5456.3101     -303.69707      1540.9292      5365.2037    
    293000   1.022444       1.0033662      7.5771039     -2576.4796     -4111.6792      1535.1996     -4111.6792     -5410.0352     -301.17789      1599.5339      5815.6279    
    294000   0.99396659     0.97945862     7.3284596     -2740.0699     -4232.5107      1492.4408     -4232.5107     -5507.5598     -300.22949      1575.2786      5376.6488    
    295000   0.95254497     1.0067999      7.2718461     -2718.5477     -4148.794       1430.2463     -4148.794      -5410.5358     -302.42732      1564.1691      5335.468     
    296000   0.9784551      0.98185933     7.4591631     -2665.8419     -4134.9923      1469.1503     -4134.9923     -5430.2067     -300.17626      1595.3907      5595.6388    
    297000   1.0103082      0.99794719     7.3615127     -2579.9333     -4096.9111      1516.9778     -4096.9111     -5357.6401     -298.35499      1559.084       5573.3936    
    298000   1.0277952      1.0098144      7.5788286     -2619.3369     -4162.5714      1543.2346     -4162.5714     -5470.8726     -306.13542      1614.4366      5774.6808    
    299000   0.99402001     1.0093014      7.3140658     -2703.4851     -4196.0062      1492.521      -4196.0062     -5473.345      -302.56146      1579.9003      5397.2915    
    300000   0.99315873     1.0234964      7.2964181     -2756.7595     -4247.9874      1491.2278     -4247.9874     -5506.0126     -303.78808      1561.8134      5324.4712    
    301000   1.0041221      1.0123234      7.4808112     -2698.3578     -4206.047       1507.6893     -4206.047      -5494.9927     -299.85277      1588.7984      5587.0996    
    302000   1.0584525      1.0311304      7.5549631     -2495.0948     -4084.3612      1589.2664     -4084.3612     -5363.8541     -298.54525      1578.0382      5872.4904    
    303000   1.0400979      1.0194691      8.133595      -2496.4252     -4058.1322      1561.707      -4058.1322     -5456.1834     -300.60878      1698.6599      6512.0302    
    304000   1.0036654      0.99880276     7.7960114     -2581.0069     -4088.0105      1507.0036     -4088.0105     -5450.7621     -300.43396      1663.1856      6053.554     
    305000   0.98260771     0.96918594     7.7286729     -2626.6911     -4102.0766      1475.3855     -4102.0766     -5436.2096     -303.1768       1637.3097      5933.2883    
    306000   1.0163037      0.9956934      7.247775      -2683.5986     -4209.5786      1525.98       -4209.5786     -5454.15       -299.82129      1544.3927      5343.7569    
    307000   1.0132299      1.0216089      7.5218147     -2632.9701     -4154.3347      1521.3646     -4154.3347     -5455.0595     -299.40513      1600.1299      5697.9012    
    308000   0.99087186     0.99141067     7.3317453     -2732.0568     -4219.8509      1487.7941     -4219.8509     -5474.3695     -303.74278      1558.2614      5388.3009    
    309000   1.0141547      0.99751376     7.7630275     -2559.8438     -4082.597       1522.7532     -4082.597      -5413.0769     -301.35117      1631.8311      6038.1855    
    310000   0.97735941     0.97803595     7.5500627     -2605.3949     -4072.9001      1467.5052     -4072.9001     -5373.159      -302.26767      1602.5266      5756.7627    
    311000   1.0272299      1.0228183      7.2937133     -2593.5319     -4135.9176      1542.3857     -4135.9176     -5382.6676     -301.65386      1548.4038      5484.7031    
    312000   1.0157201      0.99700869     7.3355091     -2626.2587     -4151.3625      1525.1038     -4151.3625     -5391.969      -301.4116       1542.0181      5498.2677    
    313000   1.0040821      0.9846163      7.5776936     -2622.637      -4130.2662      1507.6292     -4130.2662     -5449.4143     -302.32179      1621.4699      5770.1235    
    314000   1.0138129      1.0185454      7.7447581     -2557.9931     -4080.2331      1522.24       -4080.2331     -5411.38       -297.34983      1628.4967      6019.8017    
    315000   1.0077815      0.98668135     7.7842792     -2576.3254     -4089.5093      1513.1839     -4089.5093     -5447.6573     -302.19585      1660.3439      6045.2414    
    316000   0.96494201     0.97561118     7.2443754     -2718.9317     -4167.7922      1448.8604     -4167.7922     -5412.663      -301.64845      1546.5193      5304.6585    
    317000   1.050146       1.0208072      7.5077263     -2594.742      -4171.5362      1576.7942     -4171.5362     -5463.5416     -302.95187      1594.9573      5720.5255    
    318000   1.0140835      1.0130001      7.7248708     -2513.4339     -4036.0803      1522.6463     -4036.0803     -5371.0097     -297.65187      1632.5813      6042.3344    
    319000   1.0227423      0.98752966     7.2815616     -2658.0172     -4193.6647      1535.6476     -4193.6647     -5435.8952     -301.62748      1543.8579      5406.759     
    320000   1.0074478      1.0243562      7.2741355     -2638.4793     -4151.1621      1512.6828     -4151.1621     -5395.5735     -299.02939      1543.4407      5418.072     
    321000   1.0069328      1.0146263      7.3123868     -2649.269      -4161.1786      1511.9096     -4161.1786     -5426.2043     -300.896        1565.9217      5449.648     
    322000   1.0113776      0.99927088     7.6653977     -2644.6925     -4163.2761      1518.5835     -4163.2761     -5500.9601     -301.53373      1639.2178      5845.2057    
    323000   0.99515891     1.0122427      7.4069057     -2642.4119     -4136.643       1494.2311     -4136.643      -5420.1263     -297.68217      1581.1655      5561.1907    
    324000   1.0193346      0.99533557     7.7262355     -2594.5273     -4125.0583      1530.531      -4125.0583     -5457.2801     -299.31557      1631.5374      5962.7526    
    325000   0.95802701     0.96564594     7.9544985     -2618.1256     -4056.6031      1438.4776     -4056.6031     -5450.6482     -297.50702      1691.5521      6191.9695    
    326000   0.98893073     0.98150308     7.5835957     -2627.4379     -4112.3174      1484.8795     -4112.3174     -5419.8685     -301.06691      1608.618       5771.8596    
    327000   0.96496123     0.9812809      7.1478608     -2745.1573     -4194.0466      1448.8893     -4194.0466     -5422.5543     -304.14997      1532.6577      5171.5371    
    328000   1.0190917      0.99725557     7.4819674     -2576.4385     -4106.6047      1530.1662     -4106.6047     -5388.3627     -305.60679      1587.3647      5710.2995    
    329000   1.0065322      1.013241       7.3955644     -2692.9132     -4204.2214      1511.3081     -4204.2214     -5477.4186     -302.59534      1575.7926      5498.128     
    330000   0.97854238     0.9997744      7.5996        -2617.2219     -4086.5033      1469.2814     -4086.5033     -5398.5461     -300.19382      1612.2367      5799.8014    
    331000   0.99619705     1.0010512      7.289176      -2587.2449     -4083.0347      1495.7899     -4083.0347     -5317.0361     -301.40074      1535.4021      5485.9648    
    332000   1.01129        0.9904421      7.3334305     -2608.7935     -4127.2453      1518.4519     -4127.2453     -5371.8101     -299.57586      1544.1406      5513.4308    
    333000   1.0094247      0.99946556     7.2549821     -2675.849      -4191.5002      1515.6512     -4191.5002     -5426.3226     -300.22328      1535.0456      5359.4887    
    334000   1.0085883      0.99265019     7.1209935     -2640.2273     -4154.6226      1514.3953     -4154.6226     -5365.7333     -302.47507      1513.5858      5246.7099    
    335000   1.029579       1.0026131      7.690009      -2536.2539     -4082.1668      1545.9129     -4082.1668     -5407.037      -300.45587      1625.3261      5980.9029    
    336000   1.0106983      1.0093151      7.2302104     -2609.7892     -4127.3527      1517.5635     -4127.3527     -5353.5476     -296.95208      1523.1469      5398.1125    
    337000   1.0288378      1.0289196      7.1713987     -2600.5461     -4145.3461      1544.8        -4145.3461     -5357.1663     -299.8697       1511.6898      5342.2179    
    338000   0.99632333     0.98827543     7.4013412     -2669.4963     -4165.4757      1495.9795     -4165.4757     -5447.9645     -296.65458      1579.1433      5527.9432    
    339000   1.0262244      1.0004722      7.338118      -2600.706      -4141.5819      1540.876      -4141.5819     -5396.7591     -300.2479       1555.4251      5526.71      
    340000   1.0173737      1.0115984      7.4911011     -2604.7165     -4132.3031      1527.5866     -4132.3031     -5428.739      -296.85204      1593.2879      5692.1376    
    341000   0.99100783     0.97032615     7.3917492     -2650.6315     -4138.6297      1487.9983     -4138.6297     -5423.7392     -303.66722      1588.7767      5536.1843    
    342000   0.9834191      0.99926067     7.301135      -2652.3119     -4128.9156      1476.6038     -4128.9156     -5382.0253     -300.09897      1553.2086      5434.1431    
    343000   0.96360671     0.98533411     7.1229733     -2757.1432     -4203.9987      1446.8555     -4203.9987     -5431.2913     -301.50539      1528.798       5131.9867    
    344000   0.99097329     0.99655817     7.6762793     -2638.1772     -4126.1236      1487.9464     -4126.1236     -5458.6378     -299.18208      1631.6962      5863.7731    
    345000   0.98489792     1.0074806      7.5547732     -2681.1727     -4159.9969      1478.8242     -4159.9969     -5467.5068     -301.79602      1609.306       5686.2022    
    346000   0.99356238     0.99186426     7.5755695     -2637.2555     -4129.0894      1491.8339     -4129.0894     -5432.3298     -297.40113      1600.6415      5753.1525    
    347000   1.0313947      1.0251145      7.5453569     -2568.9073     -4117.5464      1548.6392     -4117.5464     -5423.1405     -300.16284      1605.7569      5788.0385    
    348000   1.0158389      0.99313259     7.3433367     -2588.6684     -4113.9505      1525.2821     -4113.9505     -5388.0367     -297.45081      1571.537       5544.5275    
    349000   1.0040427      1.0123821      7.2388443     -2670.5971     -4178.1672      1507.5701     -4178.1672     -5425.038      -301.24485      1548.1157      5346.8671    
    350000   0.98207461     1.0011545      7.0722012     -2727.966      -4202.551       1474.585      -4202.551      -5410.2647     -298.96807      1506.6817      5104.9307    
    351000   1.0437114      1.0471629      7.1339988     -2595.8974     -4163.0301      1567.1327     -4163.0301     -5372.3264     -301.50591      1510.8022      5305.4439    
    352000   1.0098358      1.0062795      7.607192      -2611.1944     -4127.4628      1516.2684     -4127.4628     -5436.5331     -303.20399      1612.2742      5814.2374    
    353000   0.98510105     0.99702415     7.0288713     -2689.3632     -4168.4924      1479.1292     -4168.4924     -5364.0547     -302.53158      1498.0938      5095.543     
    354000   1.0157757      1.0164822      7.0611696     -2686.5495     -4211.7367      1525.1872     -4211.7367     -5422.3997     -300.63008      1511.2931      5134.1291    
    355000   0.99783526     1.0012362      7.4471149     -2680.4743     -4178.7239      1498.2496     -4178.7239     -5451.3388     -302.94957      1575.5645      5567.6624    
    356000   1.0183368      1.0207043      7.4395788     -2652.2778     -4181.3104      1529.0327     -4181.3104     -5451.1384     -301.809        1571.637       5587.5122    
    357000   0.97521472     0.98722367     7.8043958     -2667.697      -4131.9819      1464.2849     -4131.9819     -5497.5162     -302.3146       1667.8489      5976.1503    
    358000   1.0235686      1.0041707      7.6905002     -2599.5845     -4136.4727      1536.8882     -4136.4727     -5470.2026     -299.97402      1633.7039      5918.1163    
    359000   0.99465444     0.99920949     7.6571023     -2644.7071     -4138.1807      1493.4736     -4138.1807     -5457.8149     -298.91444      1618.5486      5836.0035    
    360000   0.99559906     0.98258713     7.2967        -2709.8621     -4204.7541      1494.892      -4204.7541     -5456.7385     -302.56817      1554.5525      5371.6808    
    361000   1.0099734      1.0059049      7.3136817     -2719.7995     -4236.2746      1516.4751     -4236.2746     -5512.6745     -298.6544       1575.0544      5380.5517    
    362000   1.0094658      0.99134492     7.1954838     -2731.1932     -4246.9061      1515.7129     -4246.9061     -5492.282      -299.41332      1544.7892      5238.2467    
    363000   1.0298516      1.0348048      7.5153314     -2547.441      -4093.7632      1546.3222     -4093.7632     -5386.2735     -297.49714      1590.0075      5776.2497    
    364000   0.97273653     0.97494718     7.2009671     -2662.4781     -4123.042       1460.5639     -4123.042      -5350.97       -299.94427      1527.8723      5313.0348    
    365000   0.9813362      0.97834629     7.3730032     -2722.3817     -4195.858       1473.4763     -4195.858      -5464.5471     -302.14119      1570.8303      5443.6717    
    366000   1.0034912      1.0112631      7.8802096     -2581.3449     -4088.087       1506.7421     -4088.087      -5451.251      -297.44022      1660.6042      6146.4707    
    367000   1.006464       1.0067198      7.4421699     -2639.9285     -4151.1341      1511.2057     -4151.1341     -5435.6503     -297.19747      1581.7137      5602.7313    
    368000   1.0008116      0.99384926     6.8828461     -2792.2916     -4295.0103      1502.7187     -4295.0103     -5476.9364     -300.32236      1482.2484      4830.8827    
    369000   1.0466314      1.0111454      7.6096904     -2556.5867     -4128.1038      1571.5171     -4128.1038     -5423.4644     -297.80931      1593.1699      5871.6123    
    370000   1.0038361      0.99423633     7.4697942     -2647.846      -4155.1059      1507.2599     -4155.1059     -5430.7907     -300.02532      1575.7101      5625.4094    
    371000   1.0007439      1.0061594      7.6896546     -2614.1469     -4116.7639      1502.6169     -4116.7639     -5463.2387     -297.48997      1643.9648      5902.6173    
    372000   0.99555608     0.98001323     7.3461837     -2678.8145     -4173.642       1494.8275     -4173.642      -5449.3921     -300.8329       1576.583       5457.5346    
    373000   1.0208955      1.030112       7.3603047     -2639.4109     -4172.2855      1532.8746     -4172.2855     -5432.7705     -301.79983      1562.2849      5512.5782    
    374000   0.99753711     1.0133948      7.2704331     -2627.9205     -4125.7225      1497.802      -4125.7225     -5359.4972     -300.92855      1534.7033      5424.5302    
    375000   1.0114095      1.0191457      7.407503      -2638.0562     -4156.6876      1518.6314     -4156.6876     -5447.5733     -297.10158      1587.9872      5566.2078    
    376000   0.96970009     0.97297933     6.856608      -2767.961      -4223.9657      1456.0047     -4223.9657     -5399.7455     -304.13595      1479.9157      4826.153     
    377000   0.97718003     1.0106274      7.4988237     -2657.3617     -4124.5976      1467.2358     -4124.5976     -5411.8376     -295.27458      1582.5146      5648.0456    
    378000   0.99100468     0.99706006     7.0722335     -2679.6741     -4167.6676      1487.9935     -4167.6676     -5379.4753     -296.75385      1508.5615      5153.2584    
    379000   1.0249598      1.0231279      7.4683946     -2585.9667     -4124.9438      1538.9771     -4124.9438     -5397.9118     -300.86954      1573.8376      5685.7386    
    380000   0.97934063     0.97495835     7.1703801     -2681.7264     -4152.2064      1470.48       -4152.2064     -5364.2425     -299.91495      1511.951       5259.9095    
    381000   1.0494779      1.0222398      7.9600168     -2435.2066     -4010.9977      1575.7911     -4010.9977     -5376.7226     -302.4561       1668.1809      6381.0004    
    382000   0.99715113     1.0059633      7.4882066     -2621.1146     -4118.337       1497.2224     -4118.337      -5400.7708     -304.70205      1587.1359      5672.5337    
    383000   0.96075918     0.96759836     7.4837896     -2663.9603     -4106.5402      1442.5799     -4106.5402     -5389.3934     -299.36902      1582.2222      5624.7959    
    384000   1.0015871      1.0038933      7.4494328     -2629.8998     -4133.7828      1503.883      -4133.7828     -5410.7027     -301.48096      1578.4008      5620.8041    
    385000   1.0055503      0.98642889     7.207499      -2675.4451     -4185.2789      1509.8338     -4185.2789     -5409.8362     -300.19455      1524.7519      5307.3023    
    386000   1.0375925      1.0219881      7.2997692     -2637.8676     -4195.8127      1557.9451     -4195.8127     -5450.543      -302.23881      1556.9692      5447.0747    
    387000   0.97622837     1.0060316      7.0916081     -2701.0255     -4166.8324      1465.8069     -4166.8324     -5385.9939     -302.74263      1521.9041      5153.3655    
    388000   0.97424512     0.97578145     7.2659558     -2739.5751     -4202.4042      1462.829      -4202.4042     -5460.5091     -299.35372      1557.4587      5307.9168    
    389000   1.0423914      0.992308       7.4537608     -2569.6898     -4134.8405      1565.1506     -4134.8405     -5425.1163     -297.41236      1587.6882      5685.8076    
    390000   1.0565079      1.0110782      7.5396486     -2509.0501     -4095.3967      1586.3467     -4095.3967     -5377.8848     -300.70243      1583.1905      5841.5734    
    391000   0.9727789      0.99673027     7.637208      -2666.888      -4127.5155      1460.6275     -4127.5155     -5472.3798     -300.33763      1645.2019      5791.7884    
    392000   0.9835553      0.98669955     7.4189351     -2618.8347     -4095.643       1476.8083     -4095.643      -5370.993      -300.82157      1576.1715      5598.0911    
    393000   1.0144498      1.0023385      7.1594915     -2699.8685     -4223.065       1523.1964     -4223.065      -5471.6606     -298.43791      1547.0335      5229.7075    
    394000   0.98868471     1.0110907      7.669204      -2657.4752     -4141.9853      1484.5101     -4141.9853     -5462.6334     -299.57507      1620.2232      5836.6387    
    395000   1.0088181      1.0099299      7.2541446     -2641.4297     -4156.17        1514.7403     -4156.17       -5413.7915     -298.41047      1556.032       5392.9806    
    396000   0.90518795     0.94492241     7.6203906     -2770.2257     -4129.3654      1359.1397     -4129.3654     -5462.6782     -301.10187      1634.4147      5669.8244    
    397000   0.98029596     0.99867348     7.7041482     -2577.0694     -4048.9837      1471.9144     -4048.9837     -5391.017      -302.67343      1644.7067      5955.7475    
    398000   1.0030815      1.0168589      7.5108102     -2619.2608     -4125.3876      1506.1268     -4125.3876     -5422.5973     -296.80978      1594.0195      5699.4223    
    399000   1.0047451      0.99787858     7.2388569     -2684.7536     -4193.3784      1508.6248     -4193.3784     -5427.2697     -299.86211      1533.7534      5332.7246    
    400000   0.99867283     0.99100243     7.460634      -2624.6124     -4124.1197      1499.5073     -4124.1197     -5405.4273     -299.80296      1581.1106      5638.4975    
    401000   0.97300609     0.99967306     7.5011943     -2634.1922     -4095.1609      1460.9686     -4095.1609     -5387.2531     -301.63576      1593.728       5673.8407    
    402000   1.0098855      0.98087364     7.2601533     -2662.8284     -4179.1715      1516.343      -4179.1715     -5444.4333     -299.68559      1564.9474      5378.2368    
    403000   1.0129007      0.99664227     7.5567416     -2560.0921     -4080.9625      1520.8704     -4080.9625     -5390.2566     -299.29032      1608.5844      5809.4628    
    404000   1.0226868      0.98734622     7.7799318     -2513.6163     -4049.1805      1535.5642     -4049.1805     -5382.285      -301.52846      1634.633       6103.1355    
    405000   0.9701287      1.0162037      7.1963889     -2736.0183     -4192.6666      1456.6482     -4192.6666     -5437.2898     -300.17886      1544.8021      5234.4239    
    406000   0.97121506     0.98058839     7.4193593     -2652.3079     -4110.5873      1458.2794     -4110.5873     -5401.3575     -298.20999      1588.9802      5565.0877    
    407000   0.97032669     0.98151281     7.0390861     -2725.9382     -4182.8838      1456.9455     -4182.8838     -5384.4775     -300.62485      1502.2186      5070.2815    
    408000   1.013481       1.0197645      7.2638767     -2665.611      -4187.3527      1521.7417     -4187.3527     -5433.681      -296.56025      1542.8885      5379.5782    
    409000   1.0567675      1.0296677      7.1832605     -2576.1525     -4162.8889      1586.7365     -4162.8889     -5386.7055     -299.50302      1523.3196      5379.7492    
    410000   0.99810218     1.0035084      7.2170371     -2717.6657     -4216.3162      1498.6504     -4216.3162     -5463.5722     -303.70564      1550.9616      5275.6456    
    411000   0.99863708     1.0025904      7.4467081     -2685.3783     -4184.8319      1499.4536     -4184.8319     -5466.8035     -296.4028       1578.3743      5562.3078    
    412000   1.005123       1.0018798      7.3824344     -2669.5467     -4178.7389      1509.1922     -4178.7389     -5466.8865     -301.4226       1589.5702      5506.9523    
    413000   1.0035964      0.98105072     7.5378764     -2649.2785     -4156.1786      1506.9001     -4156.1786     -5453.2629     -301.75264      1598.8369      5699.3821    
    414000   1.0049433      1.0205554      7.1831623     -2699.5436     -4208.4659      1508.9223     -4208.4659     -5437.8271     -301.14044      1530.5017      5256.2494    
    415000   1.0404814      1.052532       7.4622499     -2586.0809     -4148.3637      1562.2828     -4148.3637     -5419.6577     -297.33054      1568.6246      5678.8187    
    416000   0.99006042     1.0076964      7.5294388     -2681.6203     -4168.1961      1486.5757     -4168.1961     -5471.3965     -299.41947      1602.6199      5657.6951    
    417000   0.96603274     0.99412404     7.524161      -2629.133      -4079.6312      1450.4982     -4079.6312     -5371.2179     -298.90033      1590.4871      5704.3369    
    418000   1.0406         1.0176943      7.2106371     -2621.28       -4183.7408      1562.4609     -4183.7408     -5418.046      -301.67912      1535.9843      5364.943     
    419000   1.0636633      1.0328856      7.8364642     -2477.6587     -4074.7491      1597.0904     -4074.7491     -5432.7009     -299.48666      1657.4384      6201.7062    
    420000   1.0337806      1.0247153      7.6075578     -2542.325      -4094.5467      1552.2216     -4094.5467     -5407.0702     -295.21245      1607.736       5883.512     
    421000   0.98112373     0.99092205     7.2050187     -2725.0538     -4198.2111      1473.1573     -4198.2111     -5437.2585     -303.25818      1542.3055      5254.9464    
    422000   0.99849042     1.0147704      7.2284869     -2702.5366     -4201.7699      1499.2334     -4201.7699     -5442.9859     -295.61208      1536.828       5303.4561    
    423000   1.0108653      1.0117389      7.2403469     -2647.1952     -4165.0094      1517.8142     -4165.0094     -5409.3438     -299.92449      1544.2588      5371.9332    
    424000   0.97531919     0.99815773     7.1578796     -2742.481      -4206.9228      1464.4418     -4206.9228     -5450.7148     -291.15666      1534.9487      5185.3098    
    425000   1.0009113      0.99055104     7.5163355     -2621.4405     -4124.3088      1502.8683     -4124.3088     -5420.1976     -301.46941      1597.3582      5703.3622    
    426000   0.97139051     0.97384432     7.4844416     -2672.6865     -4131.2294      1458.5428     -4131.2294     -5412.6303     -305.74477      1587.1457      5616.7918    
    427000   0.97513596     1.0059466      7.2771391     -2690.0634     -4154.2301      1464.1666     -4154.2301     -5397.3025     -300.02421      1543.0966      5369.8146    
    428000   0.99994894     1.0349805      7.323508      -2696.4233     -4197.8467      1501.4233     -4197.8467     -5466.9819     -300.95123      1570.0865      5414.8111    
    429000   0.98559339     0.98984479     7.5707845     -2678.8944     -4158.7629      1479.8685     -4158.7629     -5460.0016     -301.05209      1602.2908      5706.2139    
    430000   1.0021658      1.0152442      7.212123      -2689.3651     -4194.117       1504.7519     -4194.117      -5417.5619     -300.5204       1523.9653      5298.5036    
    431000   0.9859513      0.98327022     7.3076572     -2708.59       -4188.9959      1480.4059     -4188.9959     -5452.0428     -300.45565      1563.5025      5385.0887    
    432000   0.99939215     0.99961464     7.132294      -2769.3457     -4269.933       1500.5873     -4269.933      -5501.3624     -298.14704      1529.5765      5130.1075    
    433000   0.98256331     0.97985108     7.4546533     -2692.9392     -4168.2581      1475.3188     -4168.2581     -5470.1047     -299.65228      1601.4989      5563.5466    
    434000   1.0190013      1.0130572      7.115516      -2726.5089     -4256.5394      1530.0305     -4256.5394     -5470.005      -301.6775       1515.1431      5154.3616    
    435000   0.96881214     0.97962744     7.6968612     -2706.7046     -4161.3761      1454.6714     -4161.3761     -5500.8553     -304.42392      1643.9032      5818.0414    
    436000   1.0204076      0.99967466     7.4853432     -2622.6793     -4154.8214      1532.1421     -4154.8214     -5438.1751     -301.52322      1584.8769      5667.7975    
    437000   0.9602827      0.9824548      7.1912704     -2804.9419     -4246.8064      1441.8645     -4246.8064     -5493.0147     -302.67971      1548.888       5159.8313    
    438000   0.97398392     0.97409584     7.2243132     -2715.6931     -4178.13        1462.4369     -4178.13       -5409.3734     -305.50271      1536.7461      5285.6771    
    439000   1.027418       1.0328579      7.4512724     -2590.2901     -4132.9583      1542.6682     -4132.9583     -5409.679      -302.18204      1578.9027      5662.4512    
    440000   1.0089315      1.0099508      7.261848      -2694.5709     -4209.4816      1514.9107     -4209.4816     -5451.8871     -303.16746      1545.573       5348.3712    
    441000   1.0275335      1.000452       7.4137051     -2596.5569     -4139.3984      1542.8415     -4139.3984     -5409.6668     -300.82145      1571.0898      5614.5764    
    442000   0.97274476     0.97481656     7.3383427     -2706.275      -4166.8513      1460.5763     -4166.8513     -5429.6847     -302.096        1564.9294      5421.3897    
    443000   0.98597978     1.00864        7.5305143     -2670.484      -4150.9327      1480.4486     -4150.9327     -5454.8214     -298.45625      1602.345       5670.0226    
    444000   0.98505012     0.97742767     7.5626404     -2700.2234     -4179.2761      1479.0528     -4179.2761     -5491.3393     -300.82728      1612.8905      5675.8649    
    445000   0.99048295     0.98703901     7.5173959     -2646.757      -4133.9671      1487.2101     -4133.9671     -5429.6009     -300.27061      1595.9044      5679.2202    
    446000   1.0234667      1.0285081      7.6223705     -2634.7188     -4171.4541      1536.7352     -4171.4541     -5485.2557     -298.62148      1612.4231      5807.5241    
    447000   0.99509541     1.0036025      7.5012689     -2660.0826     -4154.2184      1494.1358     -4154.2184     -5460.6104     -297.73784      1604.1298      5648.0329    
    448000   1.0141826      1.03616        7.884815      -2543.2539     -4066.0492      1522.7952     -4066.0492     -5410.7271     -298.7717       1643.4496      6189.6624    
    449000   0.99197772     1.0068986      7.4714442     -2668.3939     -4157.8484      1489.4545     -4157.8484     -5445.5101     -299.81353      1587.4752      5606.6889    
    450000   0.99425986     1.0016331      7.4528525     -2666.3432     -4159.2244      1492.8812     -4159.2244     -5442.8161     -299.70295      1583.2946      5588.1482    
    451000   1.0233869      1.0356621      7.43433       -2579.2014     -4115.8169      1536.6155     -4115.8169     -5377.1819     -303.62747      1564.9925      5654.7752    
    452000   0.99005193     0.99349064     7.3224992     -2675.4881     -4162.0511      1486.563      -4162.0511     -5426.9113     -302.88752      1567.7478      5434.6291    
    453000   0.97575373     0.99418147     7.4385058     -2692.5152     -4157.6094      1465.0942     -4157.6094     -5439.0799     -300.92815      1582.3987      5546.0864    
    454000   1.0173326      1.0196667      7.4125341     -2634.4948     -4162.0196      1527.5249     -4162.0196     -5435.096      -298.39852      1571.4748      5575.3416    
    455000   1.0104437      1.0123523      7.2972064     -2613.3523     -4130.5336      1517.1813     -4130.5336     -5385.3886     -296.099        1550.954       5468.7514    
    456000   0.99327023     0.99798554     7.6167852     -2620.1937     -4111.5889      1491.3952     -4111.5889     -5439.5185     -300.83779      1628.7674      5815.8632    
    457000   1.0066659      1.0222192      7.6095831     -2552.1479     -4063.6567      1511.5088     -4063.6567     -5364.574      -299.5929       1600.5102      5875.9323    
    458000   1.0279117      1.0226225      7.6100893     -2607.1349     -4150.5443      1543.4095     -4150.5443     -5472.1832     -294.89719      1616.5361      5821.5059    
    459000   1.003562       0.9873073      7.6520093     -2630.1009     -4136.9491      1506.8483     -4136.9491     -5453.6814     -300.84886      1617.5811      5844.969     
    460000   0.97193837     1.0103598      7.5855729     -2640.3957     -4099.7611      1459.3655     -4099.7611     -5399.4529     -301.09587      1600.7877      5761.0917    
    461000   1.0107674      0.9852055      7.4284953     -2603.5865     -4121.2538      1517.6673     -4121.2538     -5395.6828     -304.08177      1578.5107      5623.9278    
    462000   0.97465002     0.97663378     6.8070889     -2794.7381     -4258.1751      1463.437      -4258.1751     -5420.62       -299.21599      1461.6609      4744.5306    
    463000   1.0368213      1.0235293      7.3044416     -2602.1437     -4158.9309      1556.7871     -4158.9309     -5406.3112     -299.95079      1547.3312      5487.9735    
    464000   0.98065727     0.98561492     7.5103328     -2615.924      -4088.3809      1472.4569     -4088.3809     -5381.3789     -292.97903      1585.9771      5702.2304    
    465000   1.0159941      1.0031474      7.0118246     -2745.0128     -4270.528       1525.5152     -4270.528      -5476.3406     -299.49911      1505.3117      5021.0131    
    466000   0.96715429     1.0070949      7.389573      -2695.7184     -4147.9005      1452.1822     -4147.9005     -5424.7859     -298.69877      1575.5842      5488.6871    
    467000   1.0213136      1.0228879      7.5078705     -2589.9416     -4123.444       1533.5024     -4123.444      -5418.2283     -300.96853      1595.7528      5725.4857    
    468000   1.0038472      1.0022199      7.2675209     -2650.5387     -4157.8153      1507.2766     -4157.8153     -5404.8948     -299.14049      1546.22        5398.6866    
    469000   1.0257993      1.0072805      7.4931349     -2658.3188     -4198.5564      1540.2376     -4198.5564     -5495.236      -302.15394      1598.8335      5640.7879    
    470000   1.0253471      1.0043329      7.1744297     -2635.9112     -4175.4698      1539.5587     -4175.4698     -5400.4215     -301.28377      1526.2354      5310.2099    
    471000   1.0015975      1.0182628      7.3358503     -2607.381      -4111.2797      1503.8987     -4111.2797     -5366.807      -299.29354      1554.8208      5517.5232    
    472000   1.0428641      1.022741       7.6765284     -2509.5198     -4075.3802      1565.8604     -4075.3802     -5382.8182     -296.33243      1603.7705      5992.7064    
    473000   1.0258223      1.0018553      7.6640169     -2559.1207     -4099.3929      1540.2722     -4099.3929     -5419.3335     -302.96178      1622.9024      5929.2482    
    474000   1.0076762      1.0005176      7.4122051     -2630.728      -4143.7539      1513.0259     -4143.7539     -5414.8328     -304.83876      1575.9177      5578.7439    
    475000   1.0041951      1.0148502      7.376955      -2651.1045     -4158.9034      1507.7989     -4158.9034     -5426.2738     -300.89783      1568.2682      5519.3259    
    476000   1.0091291      1.0309009      7.7145143     -2606.5017     -4121.709       1515.2073     -4121.709      -5453.8764     -300.85427      1633.0217      5937.7962    
    477000   1.0349759      1.0248414      7.1464324     -2640.4337     -4194.4501      1554.0164     -4194.4501     -5404.436      -301.44488      1511.4308      5274.6786    
    478000   1.0246987      1.0089521      7.5868677     -2596.5127     -4135.0978      1538.5851     -4135.0978     -5433.4368     -299.76893      1598.1079      5806.4087    
    479000   0.9683963      0.9985421      7.5008177     -2731.9        -4185.9471      1454.0471     -4185.9471     -5479.3719     -304.27653      1597.7014      5575.7158    
    480000   1.0242285      0.99627114     7.558722      -2562.9794     -4100.8585      1537.8791     -4100.8585     -5401.0386     -299.70378      1599.8839      5808.769     
    481000   1.0191688      1.0015947      7.582629      -2627.1458     -4157.4278      1530.282      -4157.4278     -5463.9869     -300.32723      1606.8862      5771.081     
    482000   1.016608       1.0066487      7.3366259     -2650.74       -4177.177       1526.437      -4177.177      -5440.6526     -300.2379       1563.7135      5475.0233    
    483000   0.99294259     0.99408561     7.913942      -2575.5938     -4066.4971      1490.9033     -4066.4971     -5443.1281     -301.20717      1677.8382      6189.5826    
    484000   0.99610558     1.0071755      7.2070665     -2682.2668     -4177.9193      1495.6525     -4177.9193     -5411.122      -303.71286      1536.9155      5300.0015    
    485000   1.013688       1.017512       7.4983        -2642.6774     -4164.7299      1522.0525     -4164.7299     -5463.8484     -298.90073      1598.0192      5662.1499    
    486000   1.03059        1.0090376      7.2786922     -2625.3788     -4172.8097      1547.4309     -4172.8097     -5417.7959     -303.10504      1548.0912      5436.2193    
    487000   1.0406674      1.0298937      7.4714177     -2542.4429     -4105.0049      1562.5621     -4105.0049     -5387.2973     -300.19771      1582.49        5732.6106    
    488000   1.076939       1.0595626      7.4502083     -2534.5041     -4151.528       1617.0239     -4151.528      -5421.6899     -298.0932       1568.2551      5717.0587    
    489000   0.97147512     0.97061732     7.3663371     -2688.6473     -4147.3172      1458.6699     -4147.3172     -5410.772      -302.94505      1566.3998      5470.0229    
    490000   0.9613092      0.98535031     7.4711316     -2721.2509     -4164.6567      1443.4058     -4164.6567     -5464.0284     -303.4291       1602.8008      5553.4857    
    491000   0.98600092     0.97338845     7.5235362     -2622.879      -4103.3593      1480.4804     -4103.3593     -5405.3574     -301.91036      1603.9084      5709.899     
    492000   0.97993652     0.99387867     7.3476362     -2705.0005     -4176.3752      1471.3747     -4176.3752     -5430.704      -303.80422      1558.133       5432.9573    
    493000   1.008123       1.0048542      7.4726441     -2608.7201     -4122.4169      1513.6968     -4122.4169     -5394.5263     -302.00592      1574.1154      5667.6917    
    494000   0.97029349     0.97823964     7.6910943     -2697.5316     -4154.4273      1456.8957     -4154.4273     -5483.7746     -303.42242      1632.7697      5820.8272    
    495000   0.97149646     0.98490754     7.4226153     -2715.837      -4174.539       1458.7019     -4174.539      -5466.1978     -301.6946       1593.3535      5505.1648    
    496000   0.96691653     0.99917804     7.6738763     -2654.3635     -4106.1886      1451.8252     -4106.1886     -5433.7747     -296.21435      1623.8004      5844.9253    
    497000   1.0013192      1.0109533      7.2884531     -2719.895      -4223.3758      1503.4808     -4223.3758     -5481.9667     -301.13761      1559.7285      5352.514     
    498000   0.9681647      0.98060138     7.6779889     -2679.3004     -4132.9997      1453.6993     -4132.9997     -5456.5074     -300.64775      1624.1554      5824.5433    
    499000   1.0605097      1.0216233      7.4181409     -2594.1064     -4186.4618      1592.3554     -4186.4618     -5452.8647     -301.52502      1567.9279      5621.9397    
    500000   0.99328158     0.99187766     7.5046725     -2673.9123     -4165.3246      1491.4123     -4165.3246     -5469.8913     -297.21665      1601.7833      5637.9729    
colvars: Saving collective variables state to "prod.colvars.state".
Loop time of 5715.5 on 1 procs for 500000 steps with 1002 atoms

Performance: 37791.958 tau/day, 87.481 timesteps/s
100.0% CPU use with 1 MPI tasks x 1 OpenMP threads

MPI task timing breakdown:
Section |  min time  |  avg time  |  max time  |%varavg| %total
---------------------------------------------------------------
Pair    | 25.937     | 25.937     | 25.937     |   0.0 |  0.45
Kspace  | 5589.1     | 5589.1     | 5589.1     |   0.0 | 97.79
Neigh   | 0.066085   | 0.066085   | 0.066085   |   0.0 |  0.00
Comm    | 53.788     | 53.788     | 53.788     |   0.0 |  0.94
Output  | 0.066365   | 0.066365   | 0.066365   |   0.0 |  0.00
Modify  | 41.69      | 41.69      | 41.69      |   0.0 |  0.73
Other   |            | 4.88       |            |       |  0.09

Nlocal:           1002 ave        1002 max        1002 min
Histogram: 1 0 0 0 0 0 0 0 0 0
Nghost:           7713 ave        7713 max        7713 min
Histogram: 1 0 0 0 0 0 0 0 0 0
Neighs:              0 ave           0 max           0 min
Histogram: 1 0 0 0 0 0 0 0 0 0

Total # of neighbors = 0
Ave neighs/atom = 0
Neighbor list builds = 47085
Dangerous builds = 0

undump         1
unfix          1
unfix          2
unfix          3
Total wall time: 3:31:51
