LAMMPS (3 Aug 2022)
OMP_NUM_THREADS environment is not set. Defaulting to 1 thread. (../comm.cpp:98)
  using 1 OpenMP thread(s) per MPI task
package gpu 0
package gpu 1
#=======================================
# Sodium-Chloride in Stockmayer Fluid (water dipole)
#   Created by Chris Balzer (balzer@caltech.edu)
#   See README.md for description
#==================================

#======
# Parameters
#======
# Initialize the system set up
units		      lj
boundary	    p p p
atom_style	  hybrid dipole sphere
WARNING: Atom style hybrid defines both, per-type and per-atom masses; both must be set, but only per-atom masses will be used (../atom_vec_hybrid.cpp:133)
atom_modify   map yes

# Read in input data
read_data	    system.data
Reading data file ...
  orthogonal box = (0 0 0) to (10.3464 10.3464 10.3464)
  1 by 1 by 1 MPI processor grid
  reading atoms ...
  1002 atoms
  read_data CPU = 0.001 seconds

# Group atoms
group         solvent  type 1
1000 atoms in group solvent
group         ions     type 2 3
2 atoms in group ions
group         anion    type 2
1 atoms in group anion
group         cation   type 3
1 atoms in group cation
group2ndx     groups.ndx cation anion
Writing groups to index file groups.ndx:
 writing group cation...done
 writing group anion...done

# Set mass and diameter of spheres
set type      1 mass 1.0 # solvent
Setting atom values ...
  1000 settings made for mass
set type      2 mass 3.9411 # anion
Setting atom values ...
  1 settings made for mass
set type      3 mass 1.2767 # cation
Setting atom values ...
  1 settings made for mass
set type      1 diameter 1.0 # solvent
Setting atom values ...
  1000 settings made for diameter
set type      2 diameter 1.2067 # anion
Setting atom values ...
  1 settings made for diameter
set type      3 diameter 0.6533 # cation
Setting atom values ...
  1 settings made for diameter

# Set charge of ions
set type      2 charge -13.626 # anion
Setting atom values ...
  1 settings made for charge
set type      3 charge  13.626 # cation
Setting atom values ...
  1 settings made for charge

# Non-bonded interactions
pair_style	  lj/cut/dipole/long 1.12246204831 5.06974
pair_coeff	  1 1 1.0 1.0 1.122462 # solvent
pair_coeff	  2 2 1.0 1.2067 1.354438 # anion
pair_coeff	  3 3 1.0 0.6533 0.733342 # cation
kspace_style  ewald/disp 1e-4
pair_modify   shift yes mix geometric

# Set dipole
set group solvent dipole/random 4321 1.7494
Setting atom values ...
  1000 settings made for dipole/random

# Neighbor settings
neighbor	    0.4 bin
neigh_modify every 1 delay 0 one 10000

# Temperature computation
compute tempSph all  temp/sphere

#####################################################
# Minimization
minimize 0.0 1.0e-8 100000 100000

CITE-CITE-CITE-CITE-CITE-CITE-CITE-CITE-CITE-CITE-CITE-CITE-CITE

Your simulation uses code contributions which should be cited:

- GPU package (short-range, long-range and three-body potentials):

@Article{Brown11,
 author = {W. M. Brown, P. Wang, S. J. Plimpton, A. N. Tharrington},
 title = {Implementing Molecular Dynamics on Hybrid High Performance Computers - Short Range Forces},
 journal = {Comp.~Phys.~Comm.},
 year =    2011,
 volume =  182,
 pages =   {898--911}
}

@Article{Brown12,
 author = {W. M. Brown, A. Kohlmeyer, S. J. Plimpton, A. N. Tharrington},
 title = {Implementing Molecular Dynamics on Hybrid High Performance Computers - Particle-Particle Particle-Mesh},
 journal = {Comp.~Phys.~Comm.},
 year =    2012,
 volume =  183,
 pages =   {449--459}
}

@Article{Brown13,
 author = {W. M. Brown, Y. Masako},
 title = {Implementing Molecular Dynamics on Hybrid High Performance Computers â€“ Three-Body Potentials},
 journal = {Comp.~Phys.~Comm.},
 year =    2013,
 volume =  184,
 pages =   {2785--2793}
}

@Article{Trung15,
 author = {T. D. Nguyen, S. J. Plimpton},
 title = {Accelerating dissipative particle dynamics simulations for soft matter systems},
 journal = {Comput.~Mater.~Sci.},
 year =    2015,
 volume =  100,
 pages =   {173--180}
}

@Article{Trung17,
 author = {T. D. Nguyen},
 title = {GPU-accelerated Tersoff potentials for massively parallel Molecular Dynamics simulations},
 journal = {Comp.~Phys.~Comm.},
 year =    2017,
 volume =  212,
 pages =   {113--122}
}

@Article{Nikolskiy19,
 author = {V. Nikolskiy, V. Stegailov},
 title = {GPU acceleration of four-site water models in LAMMPS},
 journal = {Proceeding of the International Conference on Parallel Computing (ParCo 2019), Prague, Czech Republic},
 year =    2019
}

CITE-CITE-CITE-CITE-CITE-CITE-CITE-CITE-CITE-CITE-CITE-CITE-CITE

EwaldDisp initialization ...
Generated 3 of 3 mixed pair_coeff terms from geometric mixing rule
  G vector = 0.55961375,   accuracy = 0.0001
Generated 3 of 3 mixed pair_coeff terms from geometric mixing rule
Neighbor list info ...
  update every 1 steps, delay 0 steps, check yes
  max neighbors/atom: 10000, page size: 100000
  master list distance cutoff = 5.46974
  ghost atom cutoff = 5.46974
  binsize = 2.73487, bins = 4 4 4
  0 neighbor lists, perpetual/occasional/extra = 0 0 0
  vectors: nbox = 7, nkvec = 709
Per MPI rank memory allocation (min/avg/max) = 18.02 | 18.02 | 18.02 Mbytes
   Step          Temp          E_pair         E_mol          TotEng         Press     
         0   0              1.2172349      0              1.2172349      11.128454    
      1042   0             -5.2979542      0             -5.2979542      2.6383933    
Loop time of 25.6336 on 1 procs for 1042 steps with 1002 atoms

100.0% CPU use with 1 MPI tasks x 1 OpenMP threads

Minimization stats:
  Stopping criterion = linesearch alpha is zero
  Energy initial, next-to-last, final = 
      1.21723490571729  -5.29795423940057  -5.29795423940057
  Force two-norm initial, final = 1097.5728 26.006834
  Force max component initial, final = 103.93378 13.323729
  Final line search alpha, max atom move = 0.0003174805 0.004230024
  Iterations, force evaluations = 1042 2237

MPI task timing breakdown:
Section |  min time  |  avg time  |  max time  |%varavg| %total
---------------------------------------------------------------
Pair    | 0.10731    | 0.10731    | 0.10731    |   0.0 |  0.42
Kspace  | 25.251     | 25.251     | 25.251     |   0.0 | 98.51
Neigh   | 0.00019555 | 0.00019555 | 0.00019555 |   0.0 |  0.00
Comm    | 0.23343    | 0.23343    | 0.23343    |   0.0 |  0.91
Output  | 0          | 0          | 0          |   0.0 |  0.00
Modify  | 7.467e-05  | 7.467e-05  | 7.467e-05  |   0.0 |  0.00
Other   |            | 0.04189    |            |       |  0.16

Nlocal:           1002 ave        1002 max        1002 min
Histogram: 1 0 0 0 0 0 0 0 0 0
Nghost:           7698 ave        7698 max        7698 min
Histogram: 1 0 0 0 0 0 0 0 0 0
Neighs:              0 ave           0 max           0 min
Histogram: 1 0 0 0 0 0 0 0 0 0

Total # of neighbors = 0
Ave neighs/atom = 0
Neighbor list builds = 140
Dangerous builds = 0
reset_timestep 0

#####################################################
# Initialization (NVT Sphere with spring)

velocity       all create 1.0 4928459
fix		         1 all nve/sphere update dipole
fix            2 all langevin 1.0 1.0 1.0 214323 omega yes
fix            3 ions recenter 0.5 0.5 0.5 units fraction shift all
fix            4 cation spring couple anion 50.0 0.0 0.0 0.0 1.25

thermo		     1000
thermo_style	 custom step temp c_tempSph press etotal pe ke epair ecoul elong evdwl enthalpy
thermo_modify  norm no
dump	       	 1 all custom 10000 dump.dipoleInit id type x y z q mux muy muz

timestep	     0.005
run		         100000
EwaldDisp initialization ...
Generated 3 of 3 mixed pair_coeff terms from geometric mixing rule
  G vector = 0.55961375,   accuracy = 0.0001
Generated 3 of 3 mixed pair_coeff terms from geometric mixing rule
Per MPI rank memory allocation (min/avg/max) = 18.21 | 18.21 | 18.21 Mbytes
   Step          Temp        c_tempSph        Press          TotEng         PotEng         KinEng         E_pair         E_coul         E_long         E_vdwl        Enthalpy   
         0   1              0.49975037     3.5421807     -3807.0501     -5308.5501      1501.5        -5308.5501     -5841.8128     -273.69499      806.95766      116.13234    
      1000   1.014434       1.0015722      7.5561341     -2684.1371     -4207.3097      1523.1726     -4207.3097     -5514.3951     -303.37868      1610.4641      5684.745     
      2000   1.0334781      1.0163401      7.7458259     -2588.2392     -4140.0066      1551.7674     -4140.0066     -5478.711      -303.42687      1642.1313      5990.7382    
      3000   0.99654009     1.0116966      7.3863972     -2678.8637     -4175.1687      1496.3049     -4175.1687     -5444.4315     -301.82224      1571.085       5502.0244    
      4000   0.97624293     0.97783487     7.6665269     -2623.8908     -4089.7196      1465.8288     -4089.7196     -5410.3443     -298.76632      1619.391       5867.258     
      5000   1.020682       1.009244       7.4249322     -2656.3529     -4188.907       1532.5541     -4188.907      -5469.8259     -297.3353       1578.2542      5567.215     
      6000   1.0283908      1.0163586      7.1920808     -2736.2623     -4280.3911      1544.1288     -4280.3911     -5523.8192     -303.22868      1546.6568      5229.4085    
      7000   0.97701993     0.97762068     7.6285078     -2673.4877     -4140.4831      1466.9954     -4140.4831     -5460.994      -300.75682      1621.2677      5775.5528    
      8000   1.0317715      1.0027106      7.0751828     -2763.5604     -4312.7653      1549.2049     -4312.7653     -5526.5209     -297.41602      1511.1716      5072.6387    
      9000   1.0330934      1.0326637      7.6165537     -2638.076      -4189.2658      1551.1897     -4189.2658     -5508.7654     -295.57515      1615.0748      5797.7244    
     10000   1.0049265      1.0071763      7.2897489     -2686.8909     -4195.788       1508.8972     -4195.788      -5434.2052     -298.32509      1536.7423      5386.9533    
     11000   1.0484781      1.0299937      7.3800667     -2614.51       -4188.7999      1574.2898     -4188.7999     -5447.8474     -299.61136      1558.6589      5559.3666    
     12000   1.0123256      0.98394173     7.6105035     -2657.0005     -4177.0074      1520.0069     -4177.0074     -5490.7218     -299.03732      1612.7516      5772.0991    
     13000   1.0293686      1.0132989      7.3934757     -2663.2891     -4208.886       1545.5969     -4208.886      -5488.6073     -300.67691      1580.3981      5525.4389    
     14000   1.0251058      0.99848039     7.0709473     -2675.8683     -4215.0646      1539.1964     -4215.0646     -5428.1938     -296.38667      1509.5158      5155.6397    
     15000   0.99048776     0.9846592      7.2399205     -2722.2406     -4209.458       1487.2174     -4209.458      -5448.71       -299.22198      1538.474       5296.4156    
     16000   1.041065       1.0173824      7.8395479     -2652.4053     -4215.5644      1563.1591     -4215.5644     -5568.8272     -299.88008      1653.1428      6030.375     
     17000   1.0384796      1.0165441      7.5492493     -2602.6621     -4161.9391      1559.2771     -4161.9391     -5461.2997     -299.56152      1598.9222      5758.5947    
     18000   0.97822528     0.98457764     7.5813864     -2698.826      -4167.6313      1468.8053     -4167.6313     -5485.6451     -303.1722       1621.1861      5698.0246    
     19000   1.0259644      1.0233034      7.3991499     -2685.6439     -4226.1293      1540.4855     -4226.1293     -5503.4347     -301.97137      1579.2767      5509.3686    
     20000   1.0160286      1.0234785      7.4673113     -2648.093      -4173.6599      1525.567      -4173.6599     -5459.4894     -300.75427      1586.5837      5622.4124    
     21000   0.98594281     0.99797189     7.5638819     -2650.7085     -4131.1016      1480.3931     -4131.1016     -5435.4691     -297.38193      1601.7494      5726.7548    
     22000   0.98036406     0.97417113     7.370588      -2691.482      -4163.4986      1472.0166     -4163.4986     -5442.7014     -299.08569      1578.2884      5471.8964    
     23000   1.0060175      1.001398       7.4539072     -2705.9919     -4216.5273      1510.5353     -4216.5273     -5512.0013     -298.21323      1593.6873      5549.6676    
     24000   0.98607072     1.0013018      7.4153326     -2675.047      -4155.6322      1480.5852     -4155.6322     -5433.5029     -302.97439      1580.8451      5537.8888    
     25000   0.98368207     1.0107283      7.4378752     -2692.1442     -4169.1428      1476.9986     -4169.1428     -5455.9148     -298.04355      1584.8156      5545.7589    
     26000   0.99352478     0.99565141     7.8757406     -2592.1724     -4083.9499      1491.7775     -4083.9499     -5438.5614     -303.07305      1657.6846      6130.6936    
     27000   0.9628963      0.9765407      7.2065755     -2800.0554     -4245.8442      1445.7888     -4245.8442     -5500.935      -303.265        1558.3558      5181.6691    
     28000   0.98387592     0.97664247     7.6908871     -2673.6514     -4150.9411      1477.2897     -4150.9411     -5494.5509     -301.4084       1645.0182      5844.478     
     29000   1.0327002      1.0275544      7.4262255     -2733.5293     -4284.1286      1550.5993     -4284.1286     -5575.3157     -302.5638       1593.7509      5491.4711    
     30000   0.9814474      0.97743        7.5431667     -2709.2229     -4182.8661      1473.6433     -4182.8661     -5492.7599     -297.57083      1607.4646      5645.2971    
     31000   1.0055759      0.99505176     7.3873283     -2691.9023     -4201.7745      1509.8723     -4201.7745     -5487.687      -298.71268      1584.6252      5490.017     
     32000   1.0099251      1.0118051      7.4763309     -2655.632      -4172.0345      1516.4025     -4172.0345     -5454.6632     -303.5846       1586.2133      5624.8631    
     33000   1.0126851      1.0021138      7.3900823     -2683.5955     -4204.1422      1520.5467     -4204.1422     -5472.7869     -301.9702       1570.6149      5501.3741    
     34000   0.98939563     0.99412941     7.2605199     -2714.2215     -4199.799       1485.5775     -4199.799      -5437.1584     -302.84006      1540.1995      5327.2498    
     35000   1.0064628      0.99217867     7.490922      -2726.4884     -4237.6923      1511.2039     -4237.6923     -5531.894      -301.83687      1596.0386      5570.1673    
     36000   1.0178303      1.0170755      7.3491204     -2702.2468     -4230.519       1528.2721     -4230.519      -5509.0361     -303.42119      1581.9383      5437.3549    
     37000   1.0367441      1.0238376      7.2786284     -2668.4959     -4225.1672      1556.6712     -4225.1672     -5473.4635     -301.98075      1550.2771      5393.0316    
     38000   1.0349083      1.0194563      7.5919436     -2624.4586     -4178.3735      1553.9148     -4178.3735     -5489.1316     -295.5378       1606.296       5784.0847    
     39000   0.98468477     1.0032141      7.4076542     -2720.9114     -4199.4156      1478.5042     -4199.4156     -5489.3709     -296.8186       1586.7739      5483.52      
     40000   0.9960722      0.98238733     7.5718417     -2641.7454     -4137.3478      1495.6024     -4137.3478     -5450.6294     -292.30502      1605.5866      5744.5339    
     41000   0.98206718     0.99855217     7.5430223     -2643.5364     -4118.1103      1474.5739     -4118.1103     -5409.1596     -295.9558       1587.0051      5710.8236    
     42000   0.96136832     0.98383509     7.2871392     -2795.1203     -4238.6148      1443.4945     -4238.6148     -5507.873      -302.38309      1571.6413      5275.8335    
     43000   1.048724       1.0068788      7.3375028     -2617.2391     -4191.8982      1574.6591     -4191.8982     -5447.0362     -303.68151      1558.8195      5509.4954    
     44000   0.96973886     0.98193697     7.8494081     -2620.4984     -4076.5613      1456.0629     -4076.5613     -5432.5705     -301.67873      1657.6879      6073.2026    
     45000   1.0092757      1.0090324      7.3678869     -2638.5529     -4153.9804      1515.4275     -4153.9804     -5420.4736     -302.08445      1568.5776      5521.8338    
     46000   1.0017204      0.98540531     7.2648395     -2697.3194     -4201.4026      1504.0831     -4201.4026     -5447.092      -304.11003      1549.7994      5348.9361    
     47000   1.0164457      0.99587412     7.2968248     -2633.5156     -4159.7088      1526.1932     -4159.7088     -5409.8147     -298.68657      1548.7925      5448.1655    
     48000   0.99365116     1.0021404      7.5957884     -2697.4948     -4189.462       1491.9672     -4189.462      -5503.0993     -304.15569      1617.793       5715.3069    
     49000   1.0091145      1.0039842      7.3829134     -2715.5539     -4230.7392      1515.1854     -4230.7392     -5508.8278     -300.34787      1578.4364      5461.4758    
     50000   0.9999852      0.99363187     7.2696651     -2759.6826     -4261.1603      1501.4778     -4261.1603     -5518.9247     -299.64629      1557.4107      5291.9176    
     51000   1.00595        0.99416027     7.5132342     -2665.0411     -4175.4751      1510.4339     -4175.4751     -5464.9767     -296.8024       1586.3041      5656.3267    
     52000   1.033635       1.0387156      7.4217808     -2607.3264     -4159.3293      1552.0029     -4159.3293     -5433.8871     -301.23326      1575.791       5612.7512    
     53000   1.0266901      1.0189284      7.4024558     -2626.8777     -4168.4528      1541.5751     -4168.4528     -5442.9794     -303.41361      1577.9402      5571.7963    
     54000   1.0486803      1.0182602      7.4761661     -2625.5273     -4200.1207      1574.5934     -4200.1207     -5484.9207     -301.88239      1586.6824      5654.7854    
     55000   0.97767708     1.0008361      7.272078      -2765.8243     -4233.8064      1467.9821     -4233.8064     -5482.0906     -300.3115       1548.5957      5288.4483    
     56000   0.96838895     0.9933983      7.3750737     -2798.0986     -4252.1346      1454.036      -4252.1346     -5536.4537     -301.53992      1585.859       5370.248     
     57000   0.95157968     0.99551398     7.5560332     -2771.1063     -4199.9031      1428.7969     -4199.9031     -5536.0637     -300.8514       1637.012       5597.6642    
     58000   1.0466436      1.0149233      7.5369233     -2578.9398     -4150.4752      1571.5353     -4150.4752     -5429.3624     -304.91437      1583.8016      5768.6652    
     59000   1.01761        1.0219694      7.5915038     -2678.7916     -4206.733       1527.9415     -4206.733      -5519.1051     -301.3716       1613.7436      5729.2646    
     60000   0.99277811     1.0274428      7.6683346     -2648.1975     -4138.8539      1490.6563     -4138.8539     -5468.3973     -295.589        1625.1324      5844.9535    
     61000   1.0329304      1.0125938      7.4418643     -2645.3429     -4196.2879      1550.945      -4196.2879     -5468.5881     -300.65468      1572.9549      5596.9785    
     62000   1.0026331      1.0083436      7.5932809     -2659.9229     -4165.3764      1505.4535     -4165.3764     -5487.2913     -300.29632      1622.2112      5750.1016    
     63000   1.0063771      0.99349007     7.4976649     -2734.9442     -4246.0194      1511.0752     -4246.0194     -5535.9746     -303.38202      1593.3372      5569.1797    
     64000   1.0101712      1.000791       7.4109256     -2674.9192     -4191.6913      1516.7721     -4191.6913     -5469.55       -299.64116      1577.4999      5533.1357    
     65000   0.96714141     0.9694367      7.176612      -2770.279      -4222.4418      1452.1628     -4222.4418     -5452.3012     -302.30629      1532.1656      5178.2591    
     66000   1.0133283      1.0068813      7.5304278     -2577.2175     -4098.73        1521.5125     -4098.73       -5385.9878     -296.06062      1583.3184      5763.1933    
     67000   0.99512412     0.99355891     7.3425676     -2690.6472     -4184.8261      1494.1789     -4184.8261     -5454.2582     -297.11129      1566.5435      5441.6969    
     68000   0.97667651     1.00254        7.4286944     -2718.3112     -4184.791       1466.4798     -4184.791      -5463.0356     -301.87814      1580.1227      5509.4237    
     69000   1.0011475      1.0196729      7.1300268     -2797.8934     -4301.1164      1503.223      -4301.1164     -5530.8891     -298.83681      1528.6095      5099.0488    
     70000   1.0430528      1.0159384      7.4994328     -2596.6162     -4162.76        1566.1438     -4162.76       -5438.3085     -299.8          1575.3486      5709.4657    
     71000   0.98255778     0.97766576     7.5103775     -2728.1659     -4203.4764      1475.3105     -4203.4764     -5499.2465     -302.52274      1598.2928      5590.038     
     72000   1.0045803      0.99043279     7.5483099     -2694.8142     -4203.1916      1508.3774     -4203.1916     -5507.3254     -299.95248      1604.0863      5665.4021    
     73000   1.0407151      1.0331119      7.4879674     -2602.7144     -4165.3481      1562.6338     -4165.3481     -5453.6472     -298.07458      1586.3737      5690.6689    
     74000   0.97881702     0.98539346     7.4542786     -2694.8937     -4164.5874      1469.6938     -4164.5874     -5447.2785     -297.83093      1580.522       5561.1772    
     75000   0.98332776     1.0072159      7.4517675     -2752.1        -4228.5666      1476.4666     -4228.5666     -5533.07       -300.45278      1604.9562      5501.1897    
     76000   0.99841682     1.0288205      7.351165      -2688.0123     -4187.1352      1499.1229     -4187.1352     -5445.3338     -303.42188      1561.6205      5453.8539    
     77000   1.006044       1.0009754      7.6191247     -2701.6898     -4212.2649      1510.5751     -4212.2649     -5526.8533     -302.52499      1617.1134      5736.9583    
     78000   0.99406472     1.0038763      7.5283204     -2683.4412     -4176.0293      1492.5882     -4176.0293     -5478.9408     -300.65058      1603.562       5654.6356    
     79000   0.98244784     1.0158898      7.1703229     -2761.6679     -4236.8133      1475.1454     -4236.8133     -5473.7436     -296.7749       1533.7052      5179.9046    
     80000   1.0058212      1.0236005      7.5591174     -2693.0327     -4203.2733      1510.2406     -4203.2733     -5500.6285     -301.14701      1598.5022      5679.1536    
     81000   1.0101018      0.99854715     7.2236252     -2757.2802     -4273.948       1516.6678     -4273.948      -5529.3657     -300.4922       1555.91        5243.3279    
     82000   0.97622309     0.97517629     7.2782064     -2751.7115     -4217.5104      1465.799      -4217.5104     -5482.0422     -295.29117      1559.823       5309.3486    
     83000   1.0199383      1.0173512      7.3816755     -2708.7772     -4240.2146      1531.4373     -4240.2146     -5513.3824     -302.17679      1575.3446      5466.8812    
     84000   0.97621737     0.98837376     7.1147117     -2837.7484     -4303.5387      1465.7904     -4303.5387     -5534.4094     -303.38921      1534.2599      5042.2313    
     85000   1.0050652      1.0055873      7.4033665     -2727.3        -4236.4054      1509.1055     -4236.4054     -5515.7109     -299.50869      1578.8141      5472.3827    
     86000   1.026796       1.0167024      7.0800093     -2674.6392     -4216.3734      1541.7342     -4216.3734     -5421.5432     -303.64476      1508.8146      5166.9055    
     87000   0.9800098      1.0052649      7.3175704     -2789.2161     -4260.7008      1471.4847     -4260.7008     -5528.0118     -303.48963      1570.8007      5315.4421    
     88000   1.010393       0.99109879     7.0587441     -2795.9702     -4313.0753      1517.1051     -4313.0753     -5535.223      -300.31002      1522.4577      5022.022     
     89000   1.0098281      1.0115622      7.4789617     -2745.0826     -4261.3395      1516.2569     -4261.3395     -5559.9898     -300.96557      1599.6159      5538.3264    
     90000   0.9584878      0.98341075     7.5225982     -2688.7645     -4127.9339      1439.1694     -4127.9339     -5432.5681     -301.75821      1606.3924      5642.9746    
     91000   0.98235775     0.97919002     7.4665964     -2669.6759     -4144.6861      1475.0102     -4144.6861     -5420.2454     -302.77908      1578.3384      5600.0378    
     92000   0.99229269     0.99212289     7.1789577     -2753.0905     -4243.018       1489.9275     -4243.018      -5478.2541     -301.0231       1536.2593      5198.0456    
     93000   1.009654       1.0016369      7.6529949     -2672.7634     -4188.7588      1515.9954     -4188.7588     -5510.8681     -301.28178      1623.3911      5803.3981    
     94000   1.0367861      1.0171158      7.7040152     -2603.0651     -4159.7994      1556.7343     -4159.7994     -5484.9337     -298.97232      1624.1066      5929.6044    
     95000   0.99259155     0.98221039     7.1733529     -2784.6479     -4275.0241      1490.3762     -4275.0241     -5534.1018     -301.9359       1561.0136      5160.2806    
     96000   1.038571       1.0184275      7.6963059     -2588.641      -4148.0553      1559.4143     -4148.0553     -5458.1454     -301.41143      1611.5016      5935.49      
     97000   0.98958126     0.98382843     7.6044515     -2707.7282     -4193.5844      1485.8563     -4193.5844     -5511.2139     -303.65156      1621.2811      5714.6684    
     98000   1.0022689      0.97692467     7.3435672     -2695.6156     -4200.5225      1504.9068     -4200.5225     -5469.1555     -298.18067      1566.8137      5437.8356    
     99000   1.0285238      1.0192586      7.4904652     -2667.1728     -4211.5012      1544.3284     -4211.5012     -5502.0305     -300.28987      1590.8191      5628.977     
    100000   1.0047621      1.0054866      7.4674923     -2710.2669     -4218.9172      1508.6503     -4218.9172     -5495.4539     -301.29212      1577.8288      5560.439     
Loop time of 1155.5 on 1 procs for 100000 steps with 1002 atoms

Performance: 37386.289 tau/day, 86.542 timesteps/s
100.0% CPU use with 1 MPI tasks x 1 OpenMP threads

MPI task timing breakdown:
Section |  min time  |  avg time  |  max time  |%varavg| %total
---------------------------------------------------------------
Pair    | 5.2928     | 5.2928     | 5.2928     |   0.0 |  0.46
Kspace  | 1130.1     | 1130.1     | 1130.1     |   0.0 | 97.80
Neigh   | 0.014364   | 0.014364   | 0.014364   |   0.0 |  0.00
Comm    | 11.183     | 11.183     | 11.183     |   0.0 |  0.97
Output  | 0.01418    | 0.01418    | 0.01418    |   0.0 |  0.00
Modify  | 7.9339     | 7.9339     | 7.9339     |   0.0 |  0.69
Other   |            | 0.9559     |            |       |  0.08

Nlocal:           1002 ave        1002 max        1002 min
Histogram: 1 0 0 0 0 0 0 0 0 0
Nghost:           7649 ave        7649 max        7649 min
Histogram: 1 0 0 0 0 0 0 0 0 0
Neighs:              0 ave           0 max           0 min
Histogram: 1 0 0 0 0 0 0 0 0 0

Total # of neighbors = 0
Ave neighs/atom = 0
Neighbor list builds = 10151
Dangerous builds = 1

undump         1
unfix          1
unfix          2
unfix          3
unfix          4

#####################################################
# Equilibration (NVT Sphere with colvars)

fix		         1 all nve/sphere update dipole
fix            2 all langevin 1.0 1.0 1.0 214323 omega yes
fix            3 ions colvars input.colvars output equil

thermo		     1000
thermo_style	 custom step temp c_tempSph press etotal pe ke epair ecoul elong evdwl enthalpy
WARNING: New thermo_style command, previous thermo_modify settings will be lost (../output.cpp:903)
thermo_modify  norm no
dump	       	 1 all custom 10000 dump.dipoleEquil id type x y z q mux muy muz

timestep	     0.005
run		         500000
EwaldDisp initialization ...
Generated 3 of 3 mixed pair_coeff terms from geometric mixing rule
  G vector = 0.55961375,   accuracy = 0.0001
Generated 3 of 3 mixed pair_coeff terms from geometric mixing rule
colvars: Creating proxy instance
colvars: ----------------------------------------------------------------------
colvars: Initializing the collective variables module, version 2022-05-24.
colvars: Please cite Fiorin et al, Mol Phys 2013:
colvars:   https://doi.org/10.1080/00268976.2013.813594
colvars: as well as all other papers listed below for individual features used.
colvars: This version was built with the C++11 standard or higher.
colvars: Using LAMMPS interface, version "2022-05-09".
colvars: ----------------------------------------------------------------------
colvars: Reading new configuration from file "input.colvars":
colvars: # units = "" [default]
colvars: # indexFile = "groups.ndx"
colvars: The following index groups are currently defined:
colvars:   cation (1 atoms)
colvars:   anion (1 atoms)
colvars: # smp = on [default]
colvars: # colvarsTrajFrequency = 1000
colvars: # colvarsRestartFrequency = 0 [default]
colvars: # scriptedColvarForces = off [default]
colvars: # scriptingAfterBiases = off [default]
colvars: ----------------------------------------------------------------------
colvars:   Initializing a new collective variable.
colvars:   # name = "dist"
colvars:   Initializing a new "distance" component.
colvars:     # name = "" [default]
colvars:     # componentCoeff = 1 [default]
colvars:     # componentExp = 1 [default]
colvars:     # period = 0 [default]
colvars:     # wrapAround = 0 [default]
colvars:     # forceNoPBC = off [default]
colvars:     # scalable = on [default]
colvars:       Initializing atom group "group1".
colvars:       # name = "" [default]
colvars:       # centerToOrigin = off [default]
colvars:       # centerToReference = off [default]
colvars:       # rotateToReference = off [default]
colvars:       # atomsOfGroup = "" [default]
colvars:       # indexGroup = "cation"
colvars:       # psfSegID =  [default]
colvars:       # atomsFile = "" [default]
colvars:       # dummyAtom = ( 0 , 0 , 0 ) [default]
colvars:       # enableFitGradients = on [default]
colvars:       # printAtomIDs = off [default]
colvars:       Atom group "group1" defined with 1 atoms requested.
colvars:       Initializing atom group "group2".
colvars:       # name = "" [default]
colvars:       # centerToOrigin = off [default]
colvars:       # centerToReference = off [default]
colvars:       # rotateToReference = off [default]
colvars:       # atomsOfGroup = "" [default]
colvars:       # indexGroup = "anion"
colvars:       # psfSegID =  [default]
colvars:       # atomsFile = "" [default]
colvars:       # dummyAtom = ( 0 , 0 , 0 ) [default]
colvars:       # enableFitGradients = on [default]
colvars:       # printAtomIDs = off [default]
colvars:       Atom group "group2" defined with 1 atoms requested.
colvars:     # oneSiteSystemForce = off [default]
colvars:     # oneSiteTotalForce = off [default]
colvars:   All components initialized.
colvars:   # timeStepFactor = 1 [default]
colvars:   # width = 0.01
colvars:   # lowerBoundary = 0.75
colvars:   # upperBoundary = 2.5
colvars:   # hardLowerBoundary = off [default]
colvars:   # hardUpperBoundary = off [default]
colvars:   # expandBoundaries = off [default]
colvars:   # extendedLagrangian = off [default]
colvars:   # outputValue = on [default]
colvars:   # outputVelocity = off [default]
colvars:   # outputTotalForce = off [default]
colvars:   # outputAppliedForce = off [default]
colvars:   # subtractAppliedForce = off [default]
colvars:   # runAve = off [default]
colvars:   # corrFunc = off [default]
colvars: ----------------------------------------------------------------------
colvars: Collective variables initialized, 1 in total.
colvars: ----------------------------------------------------------------------
colvars:   Initializing a new "abf" instance.
colvars:   # name = "abf_dist"
colvars:   # colvars = { dist }
colvars:   # stepZeroData = off [default]
colvars:   # outputEnergy = on
colvars:   # outputFreq = 1000
colvars:   # timeStepFactor = 1 [default]
colvars:   WARNING: ABF should not be run without a thermostat or at 0 Kelvin!
colvars:   # applyBias = on [default]
colvars:   # updateBias = on [default]
colvars:   # hideJacobian = off [default]
colvars:   Jacobian (geometric) forces will be included in reported free energy gradients.
colvars:   # fullSamples = 1000
colvars:   # inputPrefix =  [default]
colvars:   # historyFreq = 1000000
colvars:   # shared = off [default]
colvars:   # maxForce =  [default]
colvars:   # integrate = on [default]
colvars:   Finished ABF setup.
colvars: ----------------------------------------------------------------------
colvars:   Initializing a new "harmonicwalls" instance.
colvars:   # name = "wall_dist"
colvars:   # colvars = { dist }
colvars:   # stepZeroData = off [default]
colvars:   # outputEnergy = off [default]
colvars:   # outputFreq = 0 [default]
colvars:   # timeStepFactor = 1 [default]
colvars:   # writeTISamples = off [default]
colvars:   # writeTIPMF = off [default]
colvars:   # forceConstant = 1 [default]
colvars:   # targetForceConstant = -1 [default]
colvars:   # lowerWalls = { 0.7 }
colvars:   # upperWalls = { 2.55 }
colvars:   # lowerWallConstant = 1
colvars:   # upperWallConstant = 1
colvars:   The lower wall force constant for colvar "dist" will be rescaled to 10000 according to the specified width (0.01).
colvars:   The upper wall force constant for colvar "dist" will be rescaled to 10000 according to the specified width (0.01).
colvars: ----------------------------------------------------------------------
colvars: Collective variables biases initialized, 2 in total.
colvars: ----------------------------------------------------------------------
colvars: Collective variables module (re)initialized.
colvars: ----------------------------------------------------------------------
colvars: The restart output state file will be "rest.colvars.state".
colvars: The final output state file will be "equil.colvars.state".
colvars: Opening trajectory file "equil.colvars.traj".
colvars: Setting initial step number from LAMMPS: 100000
colvars: Re-initialized atom group for variable "dist":0/0. 1 atoms: total mass = 1.2767, total charge = 13.626.
colvars: Re-initialized atom group for variable "dist":0/1. 1 atoms: total mass = 3.9411, total charge = -13.626.
colvars:   Prepared sample and gradient buffers at step 100000.
Per MPI rank memory allocation (min/avg/max) = 18.22 | 18.22 | 18.22 Mbytes
   Step          Temp        c_tempSph        Press          TotEng         PotEng         KinEng         E_pair         E_coul         E_long         E_vdwl        Enthalpy   
    100000   1.0047621      1.0054866      7.4674924     -2710.2669     -4218.9172      1508.6503     -4218.9172     -5495.4539     -301.29212      1577.8288      5560.4391    
    101000   1.0081         0.99532685     7.4586976     -2643.6855     -4157.3476      1513.6621     -4157.3476     -5449.4559     -297.01873      1589.1271      5617.2797    
    102000   1.0038033      1.0088841      7.3047289     -2705.6737     -4212.8844      1507.2107     -4212.8844     -5469.566      -304.32688      1561.0085      5384.7617    
    103000   1.0179074      1.0164716      7.2438948     -2721.6428     -4250.0308      1528.388      -4250.0308     -5490.4776     -301.49203      1541.9389      5301.4151    
    104000   0.97554523     0.98571644     7.821481      -2725.4102     -4190.1914      1464.7812     -4190.1914     -5554.8329     -299.25721      1663.8987      5937.36      
    105000   0.99785712     0.98463339     7.4366803     -2720.6526     -4218.9351      1498.2825     -4218.9351     -5508.6657     -300.78519      1590.5158      5515.9271    
    106000   0.98548217     0.98811653     7.4082895     -2715.4553     -4195.1568      1479.7015     -4195.1568     -5483.6874     -299.84953      1588.3801      5489.6799    
    107000   0.99822785     0.99860176     7.4188202     -2739.1275     -4237.9666      1498.8391     -4237.9666     -5523.3279     -296.87402      1582.2352      5477.671     
    108000   1.0295304      1.0052679      7.5570189     -2667.0831     -4212.923       1545.8399     -4212.923      -5518.7239     -300.82004      1606.6209      5702.779     
    109000   0.98944006     0.98701982     7.3579467     -2629.9751     -4115.6194      1485.6443     -4115.6194     -5348.5541     -302.36552      1535.3002      5519.4023    
    110000   1.0091397      1.0098599      7.2435107     -2681.4702     -4196.6934      1515.2232     -4196.6934     -5433.7359     -301.35344      1538.396       5341.1623    
    111000   1.0108293      0.99798637     7.0591224     -2689.6005     -4207.3606      1517.7602     -4207.3606     -5405.682      -301.05838      1499.3797      5128.8106    
    112000   0.99892089     0.99374269     7.7967444     -2637.1039     -4136.9837      1499.8797     -4136.9837     -5494.0678     -298.2135       1655.2977      5998.2688    
    113000   0.97561385     1.011015       7.4384676     -2751.1505     -4216.0346      1464.8842     -4216.0346     -5514.8713     -303.66543      1602.5021      5487.4088    
    114000   0.99567088     0.99350357     7.2275492     -2710.3672     -4205.367       1494.9998     -4205.367      -5450.4795     -294.29226      1539.4048      5294.587     
    115000   1.0050629      1.0098959      7.3697235     -2627.7344     -4136.8364      1509.102      -4136.8364     -5393.5596     -301.33967      1558.0629      5534.6865    
    116000   0.99774116     0.99332747     7.3360498     -2785.1918     -4283.3002      1498.1084     -4283.3002     -5561.7396     -300.95081      1579.3902      5339.9335    
    117000   1.0020366      1.0259032      7.2920153     -2644.789      -4149.3469      1504.5579     -4149.3469     -5381.0167     -304.05339      1535.7232      5431.5654    
    118000   1.0195851      1.0154023      7.5621802     -2698.1224     -4229.0294      1530.907      -4229.0294     -5545.7258     -299.982        1616.6784      5677.4561    
    119000   1.020462       1.012322       7.1564032     -2669.914      -4202.1377      1532.2237     -4202.1377     -5406.9462     -301.85566      1506.6642      5256.2416    
    120000   1.0062786      1.0259568      7.1671771     -2739.2938     -4250.2211      1510.9273     -4250.2211     -5475.4411     -299.25146      1524.4715      5198.7946    
    121000   0.97353928     0.98299055     7.4004807     -2678.1089     -4139.8781      1461.7692     -4139.8781     -5396.6498     -299.1773       1555.949       5518.3776    
    122000   1.027886       1.0178513      7.2132353     -2676.3516     -4219.7223      1543.3708     -4219.7223     -5450.4294     -301.90826      1532.6153      5312.7491    
    123000   1.0345934      1.0219463      7.3702798     -2613.5593     -4167.0013      1553.4419     -4167.0013     -5419.5373     -300.73232      1553.2684      5549.4777    
    124000   1.0025775      1.0102949      7.2989576     -2691.7381     -4197.1082      1505.3702     -4197.1082     -5456.8302     -301.69594      1561.4179      5392.3054    
    125000   0.98935578     1.0054999      7.2795838     -2732.3508     -4217.8685      1485.5177     -4217.8685     -5486.8771     -301.31045      1570.319       5330.2349    
    126000   1.0359896      1.0252464      7.1948287     -2657.1992     -4212.7376      1555.5384     -4212.7376     -5425.9735     -297.65822      1510.8941      5311.5151    
    127000   1.0154627      1.005151       7.6325081     -2634.6607     -4159.3779      1524.7172     -4159.3779     -5477.3319     -294.78486      1612.7389      5818.8103    
    128000   1.0062669      1.0166151      7.5404373     -2709.9667     -4220.8765      1510.9098     -4220.8765     -5522.6975     -303.90199      1605.723       5641.5303    
    129000   1.0022705      0.98506278     7.3911255     -2711.2919     -4216.2011      1504.9092     -4216.2011     -5479.5769     -305.5676       1568.9434      5474.8331    
    130000   1.0231063      1.0382287      7.5211049     -2647.2506     -4183.4447      1536.1941     -4183.4447     -5472.7568     -300.62608      1589.9382      5682.8346    
    131000   0.99149381     1.0043286      7.2774897     -2730.3537     -4219.0817      1488.728      -4219.0817     -5480.0056     -295.82752      1556.7515      5329.9126    
    132000   0.99090947     1.0069512      7.5526042     -2632.7376     -4120.5881      1487.8506     -4120.5881     -5406.8398     -302.36058      1588.6123      5732.235     
    133000   1.0349733      1.0196067      7.7881377     -2669.1347     -4223.1472      1554.0124     -4223.1472     -5572.5107     -298.67546      1648.039       5956.7056    
    134000   0.97324647     0.98893036     7.1389121     -2755.2757     -4216.6053      1461.3296     -4216.6053     -5447.4424     -303.15394      1533.991       5151.5074    
    135000   0.98501915     0.99000566     7.1290393     -2693.8835     -4172.8898      1479.0063     -4172.8898     -5396.818      -299.56417      1523.4924      5201.9649    
    136000   1.051934       1.02099        7.2607323     -2681.2862     -4260.7651      1579.4788     -4260.7651     -5522.5979     -294.32036      1556.1532      5360.4203    
    137000   1.0031276      1.0320471      7.5422016     -2660.6458     -4166.8418      1506.196      -4166.8418     -5465.7442     -299.05511      1597.9575      5692.8052    
    138000   0.97604911     0.99076555     7.2566874     -2711.1535     -4176.6912      1465.5377     -4176.6912     -5431.9857     -302.12444      1557.4189      5326.073     
    139000   0.97948841     0.97958585     7.5772309     -2622.3582     -4093.0601      1470.7019     -4093.0601     -5398.9365     -300.29417      1606.1706      5769.8899    
    140000   1.0095349      1.0033723      7.3914022     -2729.5478     -4245.3645      1515.8167     -4245.3645     -5518.3589     -302.6428       1575.6373      5456.8837    
    141000   1.040541       1.0548873      7.7715922     -2586.2391     -4148.6114      1562.3723     -4148.6114     -5489.0771     -301.26486      1641.7306      6021.276     
    142000   1.0059251      0.98573229     7.4404257     -2739.2534     -4249.6499      1510.3965     -4249.6499     -5526.89       -301.89015      1579.1302      5501.4745    
    143000   1.0355455      1.0379796      7.4859469     -2628.2401     -4183.1116      1554.8715     -4183.1116     -5467.4924     -302.16422      1586.545       5662.9054    
    144000   0.99791763     1.0223103      7.5598738     -2717.4446     -4215.818       1498.3733     -4215.818      -5532.3551     -304.70868      1621.2459      5655.5794    
    145000   0.97952679     0.9942078      7.3210115     -2717.2338     -4187.9933      1470.7595     -4187.9933     -5454.3673     -304.36528      1570.7393      5391.2355    
    146000   0.98531774     0.9871562      7.556768      -2730.5903     -4210.0449      1479.4546     -4210.0449     -5517.9994     -299.6475       1607.6021      5638.9939    
    147000   0.96893341     0.97640477     7.5064807     -2718.4703     -4173.3238      1454.8535     -4173.3238     -5495.7539     -301.02677      1623.4569      5595.4176    
    148000   0.99184819     0.99935961     7.3922598     -2641.1769     -4130.437       1489.2601     -4130.437      -5394.0193     -297.75036      1561.3327      5546.2044    
    149000   1.0321123      1.0184365      7.3538028     -2715.0186     -4264.7352      1549.7166     -4264.7352     -5528.7838     -300.88371      1564.9323      5429.7691    
    150000   0.99959719     1.0056275      7.2805971     -2738.1352     -4239.0303      1500.8952     -4239.0303     -5496.7819     -300.43865      1558.1902      5325.5729    
    151000   1.0289781      1.0379437      7.4302244     -2606.1586     -4151.1692      1545.0106     -4151.1692     -5417.1209     -303.57887      1569.5306      5623.2707    
    152000   1.0322244      1.0051542      7.2859862     -2743.5938     -4293.4787      1549.8849     -4293.4787     -5548.0572     -301.08618      1555.6647      5326.083     
    153000   0.99290574     0.98777314     7.4111414     -2715.2315     -4206.0795      1490.848      -4206.0795     -5488.2633     -298.69228      1580.8761      5493.0623    
    154000   1.0232431      1.002549       7.4832487     -2576.5179     -4112.9175      1536.3995     -4112.9175     -5380.4272     -298.98254      1566.4923      5711.6392    
    155000   0.99957231     0.993225       7.3998062     -2706.7569     -4207.6147      1500.8578     -4207.6147     -5492.4998     -297.85312      1582.7382      5488.9825    
    156000   1.0106917      1.0033521      7.626077      -2707.9031     -4225.4568      1517.5537     -4225.4568     -5545.5586     -295.38229      1615.4841      5738.4451    
    157000   1.0366162      1.007748       7.4845725     -2668.4892     -4224.9684      1556.4792     -4224.9684     -5512.2309     -299.67956      1586.942       5621.134     
    158000   1.003129       0.9903599      7.0851563     -2745.8818     -4252.0801      1506.1983     -4252.0801     -5460.4237     -298.43359      1506.7772      5101.3636    
    159000   0.9811921      0.96145629     7.4034941     -2694.2193     -4167.4793      1473.2599     -4167.4793     -5437.6913     -304.61784      1574.8299      5505.6046    
    160000   1.0122234      1.0216257      7.3429913     -2659.058      -4178.9115      1519.8535     -4178.9115     -5430.3083     -304.24062      1555.6374      5473.7554    
    161000   1.0101734      1.0012881      7.7124336     -2708.487      -4225.2625      1516.7754     -4225.2625     -5570.0334     -303.23353      1648.0045      5833.5064    
    162000   1.0253127      1.0072906      7.427764      -2620.5017     -4160.0086      1539.507      -4160.0086     -5435.2005     -301.2312       1576.423       5606.2027    
    163000   1.0053971      0.98883397     7.5264044     -2642.8561     -4152.4599      1509.6038     -4152.4599     -5448.4588     -298.76316      1594.7621      5693.0985    
    164000   0.99929139     0.99094944     7.211373      -2759.3112     -4259.7472      1500.436      -4259.7472     -5522.4441     -298.61261      1561.3095      5227.7269    
    165000   1.0036357      0.99897649     7.3843135     -2756.3151     -4263.2742      1506.9591     -4263.2742     -5547.0217     -304.43829      1588.1858      5422.2651    
    166000   0.96124119     0.99834598     7.5638437     -2666.6426     -4109.9463      1443.3037     -4109.9463     -5409.3168     -305.34439      1604.7149      5710.7783    
    167000   1.0315616      0.99987255     7.4728765     -2609.3581     -4158.2478      1548.8897     -4158.2478     -5431.7952     -303.26751      1576.8148      5667.3111    
    168000   1.0532542      1.0317863      7.253664      -2664.8294     -4246.2906      1581.4612     -4246.2906     -5476.147      -302.1331       1531.9895      5369.0485    
    169000   0.96663063     0.96793258     7.1781291     -2756.7333     -4208.1292      1451.3959     -4208.1292     -5440.6598     -299.31489      1531.8455      5193.4851    
    170000   0.99373653     1.0068456      7.2225193     -2774.7645     -4266.8599      1492.0954     -4266.8599     -5517.4805     -303.0936       1553.7142      5224.6187    
    171000   1.0184668      0.99907106     7.6457399     -2626.5317     -4155.7596      1529.2279     -4155.7596     -5475.9402     -298.91532      1619.0959      5841.5943    
    172000   0.93972272     0.94358727     7.073797      -2809.4794     -4220.4731      1410.9937     -4220.4731     -5442.5183     -299.12104      1521.1663      5025.1848    
    173000   1.02031        1.0217667      7.4937604     -2730.5396     -4262.5351      1531.9955     -4262.5351     -5556.7186     -301.77303      1595.9566      5569.2598    
    174000   1.0324569      0.99833288     7.5244969     -2653.5755     -4203.8096      1550.234      -4203.8096     -5510.0179     -301.67734      1607.8857      5680.2665    
    175000   0.99489406     1.0027129      7.4567129     -2723.6717     -4217.5051      1493.8334     -4217.5051     -5505.4257     -299.68743      1587.608       5535.0954    
    176000   1.0218996      1.0331824      7.4081116     -2620.1174     -4154.4996      1534.3822     -4154.4996     -5419.7248     -299.869        1565.0941      5584.8208    
    177000   1.0640957      1.0235866      7.4816764     -2627.0407     -4224.7804      1597.7398     -4224.7804     -5506.341      -304.51125      1586.0718      5659.3749    
    178000   1.0044455      0.99588374     6.9689806     -2797.222      -4305.3969      1508.1749     -4305.3969     -5508.9861     -301.30131      1504.8905      4921.3515    
    179000   0.96822313     0.98301192     7.3617068     -2719.6765     -4173.4636      1453.787      -4173.4636     -5440.0756     -302.53262      1569.1446      5433.8654    
    180000   1.0028632      1.0123967      7.2298206     -2660.1809     -4165.98        1505.7991     -4165.98       -5416.2541     -299.62694      1549.901       5347.289     
    181000   0.97623083     0.98327769     7.5765826     -2638.0699     -4103.8805      1465.8106     -4103.8805     -5405.2507     -300.85512      1602.2252      5753.4601    
    182000   1.029188       1.0229113      6.982271      -2674.4114     -4219.7372      1545.3257     -4219.7372     -5400.3783     -298.79415      1479.4353      5058.8821    
    183000   1.0174321      0.99395332     7.5461102     -2555.2094     -4082.8837      1527.6743     -4082.8837     -5367.3387     -295.53351      1579.9885      5802.5706    
    184000   0.9802115      0.97495129     7.4501662     -2722.9054     -4194.693       1471.7876     -4194.693      -5483.5647     -301.57591      1590.4476      5528.6107    
    185000   1.0445873      1.0139018      7.5105843     -2616.8116     -4185.2594      1568.4479     -4185.2594     -5470.2869     -301.24416      1586.2717      5701.6214    
    186000   1.0163897      1.0089663      7.2512351     -2699.9545     -4226.0636      1526.1091     -4226.0636     -5464.6713     -298.13448      1536.7422      5331.2333    
    187000   1.0370219      1.0340463      7.5404412     -2674.113      -4231.2013      1557.0884     -4231.2013     -5530.2092     -300.65111      1599.659       5677.3883    
    188000   0.98303751     0.9889309      7.6332434     -2621.6728     -4097.7036      1476.0308     -4097.7036     -5396.2701     -298.22403      1596.7905      5832.6125    
    189000   0.98575967     1.0015185      7.3066547     -2650.932      -4131.0501      1480.1181     -4131.0501     -5375.831      -304.16741      1548.9482      5441.6364    
    190000   1.0626613      1.0388202      7.3308159     -2655.2166     -4250.8026      1595.5859     -4250.8026     -5518.4631     -300.54003      1568.2005      5464.1117    
    191000   1.0106184      1.0169123      7.8664951     -2603.4426     -4120.8861      1517.4435     -4120.8861     -5487.1878     -300.75575      1667.0575      6109.1834    
    192000   0.94442635     0.98078838     7.2578265     -2751.6802     -4169.7363      1418.0562     -4169.7363     -5425.6071     -297.50182      1553.3726      5286.808     
    193000   0.93844417     0.97055104     7.2760678     -2764.3428     -4173.4167      1409.0739     -4173.4167     -5422.6445     -295.95278      1545.1805      5294.3487    
    194000   1.0308421      1.005811       7.3358769     -2654.0639     -4201.8734      1547.8095     -4201.8734     -5472.082      -299.09593      1569.3045      5470.8698    
    195000   1.0054917      1.0017533      7.3954858     -2678.189      -4187.9347      1509.7458     -4187.9347     -5455.392      -303.32274      1570.78        5512.7653    
    196000   1.00373        0.99405199     7.7852845     -2641.279      -4148.3797      1507.1006     -4148.3797     -5496.862      -300.6322       1649.1146      5981.4012    
    197000   0.98039285     1.0028769      7.2743194     -2747.1532     -4219.213       1472.0599     -4219.213      -5477.1392     -302.42242      1560.3486      5309.6019    
    198000   0.98425388     0.97599896     7.3564739     -2693.3044     -4171.1616      1477.8572     -4171.1616     -5431.5885     -300.94972      1561.3766      5454.4418    
    199000   0.97088969     0.99735795     7.1173791     -2735.8921     -4193.683       1457.7909     -4193.683      -5430.5838     -299.97904      1536.8799      5147.0419    
    200000   0.99089808     0.99502053     7.6421588     -2659.7417     -4147.5751      1487.8335     -4147.5751     -5462.5353     -302.03368      1616.9939      5804.4181    
    201000   1.0056354      0.98560199     7.4405598     -2673.3815     -4183.343       1509.9615     -4183.343      -5472.4033     -301.38792      1590.4482      5567.495     
    202000   1.0302773      1.0065436      7.5879239     -2600.6941     -4147.6555      1546.9614     -4147.6555     -5441.783      -300.84901      1594.9765      5803.3971    
    203000   1.0463202      1.0352062      7.787346      -2593.8681     -4164.9178      1571.0497     -4164.9178     -5503.5897     -303.62959      1642.3015      6031.0953    
    204000   1.0676483      1.036711       7.6969        -2526.3732     -4129.4471      1603.0739     -4129.4471     -5443.5296     -302.87802      1616.9605      5998.4157    
    205000   1.0252722      1.0178747      7.3527328     -2720.8427     -4260.2889      1539.4462     -4260.2889     -5524.0217     -301.40921      1565.142       5422.76      
    206000   0.98055958     0.99188369     7.3190847     -2687.7552     -4160.0654      1472.3102     -4160.0654     -5424.2381     -303.78513      1567.9578      5418.5802    
    207000   1.0030935      1.005676       7.4034121     -2679.7558     -4185.9007      1506.1449     -4185.9007     -5482.2641     -296.16319      1592.5266      5519.9773    
    208000   1.0490275      1.0194554      7.6900958     -2556.2326     -4131.3474      1575.1148     -4131.3474     -5456.8969     -297.93883      1623.4884      5961.0203    
    209000   0.98178979     0.98610563     7.4614115     -2673.8373     -4147.9947      1474.1574     -4147.9947     -5462.152      -300.4589       1614.6162      5590.1337    
    210000   0.99809112     0.98100442     7.7297574     -2649.1566     -4147.7904      1498.6338     -4147.7904     -5488.3957     -300.13221      1640.7374      5912.0239    
    211000   0.99965867     1.007642       7.5194313     -2665.1298     -4166.1172      1500.9875     -4166.1172     -5455.9327     -302.99283      1592.8083      5663.1018    
    212000   0.98370806     0.98727615     7.3518823     -2744.2191     -4221.2567      1477.0376     -4221.2567     -5496.5926     -302.34387      1577.6798      5398.4417    
    213000   1.036344       1.0062604      7.4388228     -2669.4213     -4225.4918      1556.0705     -4225.4918     -5509.2978     -296.91949      1580.7255      5569.5313    
    214000   1.0382506      1.0123021      7.1091363     -2678.6264     -4237.5597      1558.9333     -4237.5597     -5440.8107     -300.16172      1503.4127      5195.1783    
    215000   1.050857       1.0168025      8.0088222     -2552.4297     -4130.2915      1577.8618     -4130.2915     -5518.7708     -301.767        1690.2463      6317.8323    
    216000   1.009906       0.99466081     7.3593007     -2650.0245     -4166.3983      1516.3738     -4166.3983     -5439.8261     -295.15658      1568.5844      5500.8526    
    217000   0.98095199     0.97671759     7.5908842     -2670.4081     -4143.3075      1472.8994     -4143.3075     -5458.7133     -300.27155      1615.6773      5736.9618    
    218000   0.9553557      0.94476186     7.3827648     -2747.2008     -4181.6674      1434.4666     -4181.6674     -5454.1236     -299.93379      1572.39        5429.6641    
    219000   1.0559851      1.028318       7.5506598     -2642.0542     -4227.6159      1585.5617     -4227.6159     -5532.1016     -303.22491      1607.7106      5720.7648    
    220000   0.97542006     0.97502849     7.4050862     -2708.5211     -4173.1143      1464.5932     -4173.1143     -5454.1987     -302.27505      1583.3594      5493.0662    
    221000   0.98671172     0.99349132     7.4112786     -2688.7837     -4170.3314      1481.5476     -4170.3314     -5446.8095     -303.05846      1579.5366      5519.662     
    222000   1.0072078      0.9959395      7.4032473     -2653.5043     -4165.8267      1512.3225     -4165.8267     -5425.9624     -298.00783      1558.1435      5546.0463    
    223000   1.0278898      1.0124286      7.122898      -2683.6254     -4227.0019      1543.3766     -4227.0019     -5460.8558     -293.09882      1526.9527      5205.4211    
    224000   0.9517914      0.95009001     7.6649796     -2739.2947     -4168.4095      1429.1148     -4168.4095     -5518.5658     -297.65452      1647.8109      5750.1405    
    225000   0.97132295     0.97727449     7.1911881     -2717.2981     -4175.7396      1458.4414     -4175.7396     -5419.5498     -299.90036      1543.7106      5247.3838    
    226000   0.9778616      0.98949365     6.9486819     -2770.3097     -4238.5689      1468.2592     -4238.5689     -5430.7371     -301.43628      1493.6045      4925.7818    
    227000   0.9897829      0.98364115     7.3426141     -2764.8019     -4250.9609      1486.159      -4250.9609     -5503.7357     -304.16125      1556.936       5367.5938    
    228000   1.0273183      1.013949       7.2243194     -2650.9        -4193.4185      1542.5184     -4193.4185     -5427.378      -303.1111       1537.0706      5350.477     
    229000   0.98806836     0.98379186     7.381598      -2687.6249     -4171.2095      1483.5846     -4171.2095     -5441.3806     -302.63257      1572.8036      5487.9478    
    230000   1.0041474      1.0100922      7.3232759     -2739.6309     -4247.3583      1507.7274     -4247.3583     -5519.511      -297.40387      1569.5565      5371.3464    
    231000   0.99416238     0.98860935     7.9701151     -2682.8477     -4175.5826      1492.7348     -4175.5826     -5564.178      -300.85433      1689.4498      6144.5437    
    232000   1.0312754      1.0121223      7.4078846     -2735.5913     -4284.0514      1548.4601     -4284.0514     -5570.5002     -302.06799      1588.5169      5469.0955    
    233000   1.0504468      1.0253627      7.4471704     -2644.7173     -4221.9631      1577.2458     -4221.9631     -5499.4854     -301.08485      1578.6071      5603.4808    
    234000   1.0285317      1.0055861      7.3539282     -2617.4228     -4161.7632      1544.3404     -4161.7632     -5433.1413     -297.23305      1568.6111      5527.5039    
    235000   0.97676909     0.99302325     7.1151882     -2779.9654     -4246.5842      1466.6188     -4246.5842     -5469.3025     -300.82994      1523.5482      5100.5421    
    236000   1.0329677      1.0312488      7.3901348     -2697.3825     -4248.3836      1551.0011     -4248.3836     -5514.1285     -299.05505      1564.7999      5487.6452    
    237000   1.0133502      1.0193578      7.293935      -2681.2665     -4202.8118      1521.5453     -4202.8118     -5461.795      -295.87456      1554.8577      5397.214     
    238000   1.0128623      1.0147762      7.6104359     -2660.4084     -4181.221       1520.8127     -4181.221      -5488.0084     -301.59108      1608.3785      5768.6163    
    239000   1.041396       1.0374457      7.6240121     -2617.8255     -4181.4816      1563.6561     -4181.4816     -5504.0504     -299.82769      1622.3965      5826.2356    
    240000   1.0281651      1.0086863      7.5031675     -2676.9975     -4220.7874      1543.7899     -4220.7874     -5518.3947     -304.16073      1601.768       5633.2209    
    241000   1.035517       1.0245644      7.1245609     -2636.5602     -4191.389       1554.8288     -4191.389      -5409.2679     -298.84139      1516.7203      5254.3281    
    242000   1.0079026      0.99457683     7.2321122     -2785.5894     -4298.9551      1513.3658     -4298.9551     -5552.7301     -301.20539      1554.9803      5224.4186    
    243000   0.95520624     0.96899064     7.5088691     -2750.1201     -4184.3622      1434.2422     -4184.3622     -5493.6004     -298.82066      1608.0589      5566.4132    
    244000   0.96839618     0.98359613     7.0787124     -2757.232      -4211.2788      1454.0469     -4211.2788     -5419.4063     -304.54997      1512.6775      5082.8763    
    245000   1.0242013      1.0349132      7.5583555     -2643.5828     -4181.421       1537.8382     -4181.421      -5484.5403     -301.31167      1604.431       5727.7597    
    246000   1.0043818      0.99640289     7.5091264     -2652.1553     -4160.2345      1508.0792     -4160.2345     -5457.1528     -299.21393      1596.1323      5664.6629    
    247000   0.97393023     1.0028263      7.0287299     -2785.4114     -4247.7677      1462.3562     -4247.7677     -5456.0345     -299.20311      1507.47        4999.3382    
    248000   0.96198784     0.97937758     7.07061       -2768.2005     -4212.6253      1444.4247     -4212.6253     -5431.1951     -303.11754      1521.6874      5062.9339    
    249000   0.99182524     1.0005002      7.0743669     -2781.6469     -4270.8725      1489.2256     -4270.8725     -5505.3502     -300.76754      1535.2452      5053.6484    
    250000   1.0305466      1.0189328      7.44539       -2672.0581     -4219.4239      1547.3657     -4219.4239     -5500.3553     -299.27231      1580.2037      5574.1681    
    251000   0.98146671     0.985252       7.1028422     -2773.6474     -4247.3197      1473.6723     -4247.3197     -5461.0077     -305.15009      1518.8381      5093.1862    
    252000   0.99368247     0.98878187     7.2460968     -2757.8641     -4249.8784      1492.0142     -4249.8784     -5502.4238     -302.35762      1554.903       5267.6326    
    253000   1.0021365      0.99032112     7.272455      -2692.7787     -4197.4867      1504.708      -4197.4867     -5456.0361     -298.78787      1557.3372      5361.9114    
    254000   0.98701607     0.9885039      7.0922894     -2757.1649     -4239.1696      1482.0046     -4239.1696     -5461.3578     -297.32265      1519.5109      5097.9807    
    255000   1.0228199      0.99638283     7.44334       -2618.2575     -4154.0217      1535.7641     -4154.0217     -5443.0851     -299.07219      1588.1356      5625.6982    
    256000   1.0004641      1.0099711      7.1847451     -2704.3987     -4206.5956      1502.1968     -4206.5956     -5449.5228     -299.61752      1542.5447      5253.1473    
    257000   1.0205316      1.0303031      7.5750276     -2622.2062     -4154.5345      1532.3283     -4154.5345     -5449.2689     -304.66431      1599.3987      5767.6015    
    258000   1.0054282      1.0036112      7.7004167     -2643.5861     -4153.2365      1509.6504     -4153.2365     -5479.9907     -301.87092      1628.6251      5885.0979    
    259000   1.0255562      1.0020715      7.5996696     -2646.275      -4186.1476      1539.8726     -4186.1476     -5505.9954     -299.26766      1619.1155      5770.8253    
    260000   1.0098907      1.0127242      7.7599849     -2559.5774     -4075.9283      1516.3509     -4075.9283     -5412.1847     -300.70143      1636.9578      6035.082     
    261000   1.0130554      1.0029025      7.5825321     -2686.8276     -4207.9303      1521.1027     -4207.9303     -5522.3091     -302.59756      1616.9763      5711.2919    
    262000   1.005254       1.0150016      7.2156181     -2710.2545     -4219.6433      1509.3888     -4219.6433     -5459.6178     -298.75555      1538.73        5281.4853    
    263000   1.0100657      0.98783384     7.29645       -2699.2982     -4215.9119      1516.6137     -4215.9119     -5475.6599     -299.70574      1559.4537      5381.9678    
    264000   0.99457401     1.0096342      7.2305699     -2665.436      -4158.7888      1493.3529     -4158.7888     -5402.9653     -301.28748      1545.4639      5342.8638    
    265000   1.0316097      0.99812263     7.4173774     -2655.486      -4204.4479      1548.9619     -4204.4479     -5480.1058     -300.55415      1576.212       5559.7145    
    266000   0.9888384      0.99813381     7.288542      -2687.7406     -4172.4815      1484.7409     -4172.4815     -5442.5575     -304.04581      1574.1218      5384.7668    
    267000   1.0449786      0.99818316     7.4076819     -2584.2843     -4153.3197      1569.0354     -4153.3197     -5420.9454     -297.6104       1565.2362      5620.1779    
    268000   1.038173       1.0225502      7.4387878     -2594.1312     -4152.948       1558.8167     -4152.948      -5423.4334     -294.75617      1565.2416      5644.7827    
    269000   0.98078652     0.97909893     7.5072105     -2667.0357     -4139.6867      1472.651      -4139.6867     -5428.3007     -297.34302      1585.957       5647.6605    
    270000   0.99451363     0.99473562     7.4153727     -2692.0175     -4185.2797      1493.2622     -4185.2797     -5464.1275     -293.83484      1572.6827      5520.9628    
    271000   1.0214302      1.0017783      7.6712744     -2590.6522     -4124.3296      1533.6774     -4124.3296     -5451.2501     -298.24751      1625.1681      5905.7549    
    272000   1.0254455      1.0191708      7.205643      -2692.0691     -4231.7756      1539.7065     -4231.7756     -5464.6103     -303.08806      1535.9228      5288.6226    
    273000   0.98954657     0.98603654     7.3706553     -2709.2479     -4195.052       1485.8042     -4195.052      -5470.8742     -301.13107      1576.9532      5454.2051    
    274000   0.99278909     0.98643406     7.4428726     -2648.461      -4139.1338      1490.6728     -4139.1338     -5422.3771     -301.88419      1585.1275      5594.9771    
    275000   0.98949612     1.0000462      7.4017623     -2704.8775     -4190.606       1485.7284     -4190.606      -5475.1097     -297.07348      1581.5772      5493.0284    
    276000   0.99438063     1.0065169      7.3565886     -2623.4232     -4116.4857      1493.0625     -4116.4857     -5369.4513     -301.09934      1554.0649      5524.45      
    277000   1.0304202      1.0360227      7.2850787     -2670.1124     -4217.2883      1547.1759     -4217.2883     -5464.1523     -302.93426      1549.7983      5398.5593    
    278000   0.97440301     0.97796197     7.2304737     -2702.8292     -4165.8953      1463.0661     -4165.8953     -5410.5071     -297.15473      1541.7665      5305.364     
    279000   0.98330305     0.99597483     7.1586376     -2703.3747     -4179.8042      1476.4295     -4179.8042     -5413.3269     -299.15766      1532.6803      5225.2556    
    280000   0.97591056     1.0045911      7.5703724     -2682.1052     -4147.4349      1465.3297     -4147.4349     -5453.2658     -297.86277      1603.6937      5702.5467    
    281000   1.0074352      0.99308819     7.5106781     -2675.0942     -4187.7582      1512.664      -4187.7582     -5494.267      -298.2443       1604.753       5643.4425    
    282000   0.9639656      1.0119535      7.3686483     -2727.4836     -4174.8779      1447.3944     -4174.8779     -5450.0768     -301.84134      1577.0402      5433.7465    
    283000   0.96390568     1.008352       7.45865       -2713.1274     -4160.4318      1447.3044     -4160.4318     -5453.7841     -302.82822      1596.1806      5547.7851    
    284000   1.024937       1.0093701      7.4040634     -2685.4223     -4224.3652      1538.9429     -4224.3652     -5500.5247     -302.14123      1578.3008      5515.0322    
    285000   1.0215291      1.0331712      7.5872385     -2554.2107     -4088.0365      1533.8259     -4088.0365     -5385.7886     -296.04474      1593.7968      5849.1215    
    286000   0.99338511     0.99311858     7.2581268     -2733.2019     -4224.7697      1491.5677     -4224.7697     -5487.6619     -299.83338      1562.7256      5305.6188    
    287000   1.0111421      1.0095536      7.5115912     -2632.3797     -4150.6095      1518.2299     -4150.6095     -5426.8492     -297.5479       1573.7876      5687.1684    
    288000   1.0010115      1.0028755      7.3605536     -2748.92       -4251.9388      1503.0188     -4251.9388     -5532.5155     -302.9283       1583.505       5403.3447    
    289000   1.0193383      1.0132245      7.4710359     -2651.0684     -4181.6048      1530.5364     -4181.6048     -5476.2883     -301.72139      1596.4049      5623.5623    
    290000   1.0294256      1.0173322      7.3354918     -2714.4886     -4260.1711      1545.6826     -4260.1711     -5513.2685     -301.23587      1554.3332      5410.0187    
    291000   1.0053759      1.0037381      7.7117779     -2657.4873     -4167.0593      1509.572      -4167.0593     -5503.6284     -298.69539      1635.2645      5883.7799    
    292000   1.0481222      1.0413201      7.3087643     -2642.5975     -4216.3529      1573.7554     -4216.3529     -5470.9485     -297.62313      1552.2187      5452.3074    
    293000   0.97578489     0.99562858     7.242069      -2754.0741     -4219.2152      1465.141      -4219.2152     -5473.9466     -303.10683      1557.8383      5266.9616    
    294000   1.0419402      1.0326458      7.2629917     -2671.8168     -4236.29        1564.4732     -4236.29       -5472.6709     -301.86028      1538.2412      5372.3922    
    295000   1.0156018      1.0010136      7.6329274     -2586.648      -4111.5741      1524.9261     -4111.5741     -5423.5029     -295.71582      1607.6447      5867.2874    
    296000   1.001531       1.0233542      7.4982098     -2669.213      -4173.0118      1503.7988     -4173.0118     -5466.7825     -298.28528      1592.056       5635.5144    
    297000   1.0056202      1.013404       7.7329799     -2620.0608     -4129.9995      1509.9387     -4129.9995     -5452.327      -301.27053      1623.598       5944.6889    
    298000   1.003115       1.0096897      7.4347795     -2632.4023     -4138.5795      1506.1772     -4138.5795     -5403.7735     -300.39972      1565.5938      5602.0722    
    299000   1.0142928      1.0327382      7.1861811     -2656.4101     -4179.3708      1522.9607     -4179.3708     -5416.2258     -298.62952      1535.4846      5302.7264    
    300000   1.0346498      1.0081012      7.6075673     -2620.2474     -4173.774       1553.5266     -4173.774      -5482.6522     -303.80397      1612.6822      5805.6002    
    301000   1.036842       1.0169145      7.0296829     -2662.2827     -4219.101       1556.8182     -4219.101      -5417.6322     -291.73587      1490.2671      5123.5224    
    302000   0.97338219     0.9599967      7.4501907     -2760.8431     -4222.3765      1461.5334     -4222.3765     -5526.2383     -300.17109      1604.0329      5490.7002    
    303000   1.0044191      1.0130185      7.2482293     -2677.3196     -4185.4548      1508.1352     -4185.4548     -5444.0701     -298.78742      1557.4027      5350.5391    
    304000   0.97266276     1.0055842      7.5301484     -2657.8837     -4118.3368      1460.4531     -4118.3368     -5420.1308     -295.24695      1597.0409      5682.2177    
    305000   0.9980626      0.99455709     7.3408397     -2654.7166     -4153.3076      1498.591      -4153.3076     -5419.2379     -304.84239      1570.7727      5475.7138    
    306000   0.9939634      0.99850192     7.1640453     -2665.0917     -4157.5277      1492.436      -4157.5277     -5381.0198     -302.26468      1525.7568      5269.528     
    307000   1.0587638      1.01835        7.5343415     -2539.4487     -4129.1826      1589.7338     -4129.1826     -5419.5857     -295.69337      1586.0964      5805.2967    
    308000   1.0329986      1.0147837      7.6623126     -2612.3675     -4163.4149      1551.0475     -4163.4149     -5482.709      -303.9002       1623.1943      5874.1139    
    309000   1.0191453      1.0309274      7.4649524     -2619.6909     -4149.9376      1530.2467     -4149.9376     -5438.9524     -297.69007      1586.7049      5648.2019    
    310000   1.0102379      1.0318131      7.3999243     -2732.8082     -4249.6804      1516.8722     -4249.6804     -5526.3599     -304.36913      1581.0486      5463.062     
    311000   0.95695366     0.9983109      7.3012475     -2774.2899     -4211.1558      1436.8659     -4211.1558     -5469.8756     -301.32207      1560.0418      5312.2896    
    312000   1.0201881      1.0101963      7.3213188     -2621.8629     -4153.6753      1531.8124     -4153.6753     -5419.3019     -300.80606      1566.4327      5486.9469    
    313000   1.0308606      1.0085635      7.379785      -2714.6101     -4262.4473      1547.8372     -4262.4473     -5546.3315     -299.00106      1582.8853      5458.9546    
    314000   1.0167946      1.0324622      7.3762361     -2705.2432     -4231.9602      1526.7171     -4231.9602     -5505.588      -299.0789       1572.7067      5464.3909    
    315000   1.0020547      1.0055456      7.1917573     -2707.4537     -4212.0388      1504.5851     -4212.0388     -5436.0794     -301.93491      1525.9755      5257.8588    
    316000   1.0066111      1.0083588      7.4270754     -2700.6704     -4212.0969      1511.4265     -4212.0969     -5507.2407     -297.94968      1593.0935      5525.2713    
    317000   1.009          1.0073385      7.3028506     -2649.8536     -4164.8671      1515.0135     -4164.8671     -5429.2919     -298.20545      1562.6302      5438.5016    
    318000   0.99907878     1.0166402      7.5918032     -2665.3476     -4165.4644      1500.1168     -4165.4644     -5490.194      -300.62722      1625.3568      5743.0402    
    319000   1.0667475      1.0460663      7.7683346     -2518.5886     -4120.31        1601.7214     -4120.31       -5452.7475     -297.92373      1630.3613      6085.3186    
    320000   1.0018743      0.99550953     7.4432056     -2650.3942     -4154.7084      1504.3142     -4154.7084     -5434.4311     -295.96604      1575.6888      5593.4127    
    321000   1.0057918      1.0057328      7.8699445     -2588.5008     -4098.6973      1510.1965     -4098.6973     -5464.8754     -300.69159      1666.8698      6127.9456    
    322000   1.0005285      0.99707258     7.3858339     -2722.5771     -4224.8707      1502.2936     -4224.8707     -5505.4059     -298.80607      1579.3414      5457.687     
    323000   1.0211466      1.0089921      7.5260627     -2627.7747     -4161.0263      1533.2515     -4161.0263     -5468.9058     -301.58715      1609.4667      5707.8015    
    324000   0.98533135     0.99006881     7.9799407     -2630.3281     -4109.8031      1479.475      -4109.8031     -5499.8054     -302.89892      1692.9012      6207.9458    
    325000   0.98295926     0.9992682      7.4464043     -2744.6976     -4220.6109      1475.9133     -4220.6109     -5511.3275     -302.52862      1593.2452      5502.652     
    326000   1.0257793      0.99949678     7.2913111     -2705.1722     -4245.3797      1540.2076     -4245.3797     -5506.43       -299.65295      1560.7032      5370.4022    
    327000   1.035209       1.0211656      7.411632      -2676.4087     -4230.775       1554.3663     -4230.775      -5517.0571     -298.61203      1584.8942      5532.4284    
    328000   1.0305105      0.99999136     7.3942169     -2683.4239     -4230.7354      1547.3115     -4230.7354     -5514.9075     -301.13121      1585.3034      5506.125     
    329000   0.99085303     0.99554709     7.4453047     -2697.9077     -4185.6735      1487.7658     -4185.6735     -5463.349      -299.14282      1576.8183      5548.2241    
    330000   1.0125717      1.0111201      7.4533534     -2731.7147     -4252.0911      1520.3763     -4252.0911     -5543.1923     -306.56701      1597.6683      5523.3315    
    331000   1.0041401      1.0024284      7.4976493     -2647.5065     -4155.2229      1507.7164     -4155.2229     -5446.6311     -296.67542      1588.0836      5656.6001    
    332000   1.0084611      1.0076719      7.8373483     -2590.6553     -4104.8597      1514.2044     -4104.8597     -5455.2693     -301.80583      1652.2155      6089.6888    
    333000   0.9822032      0.98294282     7.4130948     -2715.1233     -4189.9014      1474.7781     -4189.9014     -5480.3374     -298.02164      1588.4576      5495.3341    
    334000   1.0265384      0.99914368     7.5932067     -2644.7115     -4186.0589      1541.3474     -4186.0589     -5509.7929     -304.49533      1628.2293      5765.2307    
    335000   1.0145667      0.98562084     7.1561928     -2756.8804     -4280.2523      1523.3719     -4280.2523     -5526.9966     -301.15852      1547.9028      5169.0422    
    336000   0.97093291     1.0025023      7.3821808     -2752.5083     -4210.364       1457.8558     -4210.364      -5488.2127     -303.49434      1581.343       5423.7099    
    337000   0.97157907     0.9877185      7.3201116     -2746.4426     -4205.2686      1458.826      -4205.2686     -5486.2397     -298.46514      1579.4363      5361.0301    
    338000   0.97377223     0.97558371     7.2555804     -2760.3221     -4222.4411      1462.119      -4222.4411     -5479.346      -304.93761      1561.8426      5275.6784    
    339000   0.98074252     1.0246626      7.1389411     -2753.1506     -4225.7355      1472.5849     -4225.7355     -5458.3302     -304.34349      1536.9382      5153.6647    
    340000   0.98491813     0.97419268     7.0817898     -2759.9769     -4238.8315      1478.8546     -4238.8315     -5466.5976     -299.66424      1527.4303      5083.5398    
    341000   0.99314357     0.98093889     7.2854684     -2747.2944     -4238.4994      1491.2051     -4238.4994     -5492.4053     -303.12963      1557.0355      5321.8088    
    342000   0.97958027     0.96668135     7.9571255     -2614.4916     -4085.3314      1470.8398     -4085.3314     -5477.9656     -297.04918      1689.6834      6198.5131    
    343000   0.98642311     0.99003755     7.1850269     -2735.1342     -4216.2485      1481.1143     -4216.2485     -5437.5019     -303.48198      1524.7354      5222.724     
    344000   1.0225531      1.0299424      7.5536896     -2647.8002     -4183.1638      1535.3635     -4183.1638     -5487.7663     -299.66006      1604.2626      5718.3744    
    345000   0.92933112     0.96026615     7.3315238     -2824.4741     -4219.8647      1395.3907     -4219.8647     -5508.5707     -296.83031      1585.5363      5295.6383    
    346000   0.99783318     0.98636391     7.6160566     -2752.7498     -4250.9963      1498.2465     -4250.9963     -5581.9815     -302.50912      1633.4943      5682.5001    
    347000   1.0205564      0.99502631     7.5782251     -2619.1238     -4151.4892      1532.3654     -4151.4892     -5457.7728     -300.04903      1606.3326      5774.2254    
    348000   1.0072373      1.017759       7.294425      -2684.6041     -4196.971       1512.3669     -4196.971      -5455.454      -298.4264       1556.9094      5394.4191    
    349000   1.0392013      1.018791       7.6944634     -2612.021      -4172.3818      1560.3608     -4172.3818     -5503.5059     -298.86521      1629.9893      5910.0694    
    350000   0.99212179     0.98620165     7.2295602     -2708.8956     -4198.5664      1489.6709     -4198.5664     -5454.8982     -300.81984      1557.1516      5298.2859    
    351000   0.99804615     0.99718056     7.6111901     -2656.4524     -4155.0187      1498.5663     -4155.0187     -5464.1456     -299.24009      1608.367       5773.4076    
    352000   1.0015827      0.99351375     7.3854946     -2656.1549     -4160.0313      1503.8764     -4160.0313     -5431.2242     -303.49114      1574.6841      5523.7336    
    353000   0.99832937     1.005904       7.2373474     -2770.0172     -4269.0087      1498.9916     -4269.0087     -5527.0558     -304.77803      1562.8251      5245.7891    
    354000   1.0150926      0.99509267     7.4157771     -2703.9132     -4228.0747      1524.1615     -4228.0747     -5511.5404     -299.03688      1582.5026      5509.5149    
    355000   0.9924832      0.98063585     7.0205199     -2799.9146     -4290.1281      1490.2135     -4290.1281     -5503.726      -300.67733      1514.2752      4975.742     
    356000   1.031721       1.002589       7.4073655     -2600.4899     -4149.6189      1549.129      -4149.6189     -5402.1025     -300.79887      1553.2825      5603.6219    
    357000   1.0127769      0.98834822     7.5561529     -2685.5232     -4206.2077      1520.6846     -4206.2077     -5531.2737     -290.44703      1615.513       5683.3798    
    358000   0.9964699      0.98764471     7.4696978     -2743.2666     -4239.4661      1496.1996     -4239.4661     -5536.59       -302.26235      1599.3862      5529.882     
    359000   1.0248335      1.0046423      7.311891      -2638.5639     -4177.3514      1538.7875     -4177.3514     -5434.0225     -302.46992      1559.141       5459.804     
    360000   0.98775752     1.0097935      7.2976217     -2748.5439     -4231.6618      1483.1179     -4231.6618     -5485.8276     -299.54917      1553.715       5334.02      
    361000   1.0237605      1.0048775      7.141688      -2706.4264     -4243.6028      1537.1763     -4243.6028     -5483.3783     -302.91726      1542.6928      5203.4311    
    362000   0.97490157     1.0028587      8.02074       -2683.8206     -4147.6353      1463.8147     -4147.6353     -5560.2188     -303.84808      1716.4315      6199.6411    
    363000   0.96370365     0.98704955     7.4756912     -2755.8733     -4202.8743      1447.001      -4202.8743     -5501.6334     -299.95073      1598.7098      5523.9134    
    364000   0.99875654     0.99090613     7.6589482     -2698.9268     -4198.5597      1499.6329     -4198.5597     -5549.7879     -302.11404      1653.3422      5783.8283    
    365000   0.96816867     0.98092955     7.5500223     -2716.6976     -4170.4029      1453.7053     -4170.4029     -5477.9786     -303.38687      1610.9625      5645.4153    
    366000   1.0297381      1.0071534      7.7723559     -2630.7049     -4176.8566      1546.1517     -4176.8566     -5525.0063     -302.49291      1650.6426      5977.6561    
    367000   0.98131374     0.99345353     7.2727375     -2725.717      -4199.1596      1473.4426     -4199.1596     -5452.2597     -299.77014      1552.8702      5329.286     
    368000   1.0258634      1.024002       7.1282157     -2753.8415     -4294.1753      1540.3338     -4294.1753     -5534.8794     -299.77123      1540.4753      5141.0947    
    369000   1.037553       1.0129399      7.3814751     -2646.9457     -4204.8314      1557.8858     -4204.8314     -5474.8031     -303.19235      1573.1641      5528.4909    
    370000   1.0003148      0.99496523     7.235896      -2706.4202     -4208.393       1501.9727     -4208.393      -5453.4533     -297.46781      1542.5281      5307.7786    
    371000   0.9918317      1.0039599      7.4409809     -2789.0388     -4278.2741      1489.2353     -4278.2741     -5578.6973     -300.86416      1601.2874      5452.304     
    372000   1.0160005      1.0351434      7.8185017     -2641.2918     -4166.8166      1525.5248     -4166.8166     -5530.3128     -298.21959      1661.7157      6018.1785    
    373000   1.0069563      0.97904966     7.4598586     -2680.5481     -4192.493       1511.9449     -4192.493      -5466.2717     -299.506        1573.2847      5581.703     
    374000   0.98395428     1.0020789      7.5754076     -2675.004      -4152.4113      1477.4074     -4152.4113     -5468.4274     -297.63558      1613.6516      5715.2248    
    375000   0.98994243     0.98797673     7.3378837     -2718.8571     -4205.2557      1486.3986     -4205.2557     -5461.5289     -306.16469      1562.4379      5408.2993    
    376000   1.0169352      0.99438902     7.4428281     -2670.6425     -4197.5708      1526.9283     -4197.5708     -5498.5669     -293.14876      1594.1449      5572.7462    
    377000   1.0246636      1.022294       7.4014647     -2642.8632     -4181.3956      1538.5323     -4181.3956     -5455.9996     -300.63631      1575.2404      5554.713     
    378000   0.99968054     1.0081137      7.5725102     -2701.9102     -4202.9306      1501.0203     -4202.9306     -5528.6123     -298.57929      1624.261       5685.1094    
    379000   1.0499701      1.0317394      7.3320455     -2686.1595     -4262.6897      1576.5302     -4262.6897     -5525.3526     -300.044        1562.707       5434.5307    
    380000   0.98642284     0.9906599      7.4703628     -2695.8151     -4176.929       1481.1139     -4176.929      -5472.8134     -296.10668      1591.9911      5578.07      
    381000   0.981074       0.97962052     7.3145277     -2684.0336     -4157.1162      1473.0826     -4157.1162     -5405.968      -301.06143      1549.9132      5417.2547    
    382000   1.0390726      0.98109332     7.5496437     -2609.0419     -4169.2094      1560.1675     -4169.2094     -5469.832      -299.21086      1599.8335      5752.6517    
    383000   1.0289869      1.0295088      7.2602574     -2685.9098     -4230.9336      1545.0238     -4230.9336     -5486.94       -298.96259      1554.969       5355.2707    
    384000   0.99688299     0.98282607     7.5838125     -2679.7668     -4176.5866      1496.8198     -4176.5866     -5483.7553     -301.28131      1608.45        5719.7708    
    385000   0.97333393     0.99854521     7.3761142     -2734.6426     -4196.1035      1461.4609     -4196.1035     -5460.102      -297.44505      1561.4435      5434.8564    
    386000   0.98329783     1.0007989      7.6835024     -2631.6817     -4108.1034      1476.4217     -4108.1034     -5439.4472     -302.90618      1634.25        5878.2686    
    387000   1.008251       0.99253439     7.2387425     -2709.0254     -4222.9144      1513.8889     -4222.9144     -5458.3423     -301.97742      1537.4053      5308.3261    
    388000   0.98693891     1.0157207      7.4376984     -2729.8288     -4211.7176      1481.8888     -4211.7176     -5493.4313     -298.8318       1580.5455      5507.8784    
    389000   0.99279758     1.0021196      7.1778357     -2755.2595     -4245.9451      1490.6856     -4245.9451     -5489.6836     -301.91215      1545.6507      5194.634     
    390000   1.0316935      1.0124308      7.8033371     -2550.7583     -4099.8461      1549.0878     -4099.8461     -5441.8526     -298.94216      1640.9487      6091.9163    
    391000   0.99747482     1.001944       7.3913231     -2690.9816     -4188.69        1497.7084     -4188.69       -5470.3105     -298.10963      1579.7301      5495.3622    
    392000   0.96780965     0.9982714      7.4642356     -2797.8181     -4250.9843      1453.1662     -4250.9843     -5545.4028     -300.92202      1595.3405      5469.2808    
    393000   0.9423199      0.96804494     7.3454127     -2804.3282     -4219.2215      1414.8933     -4219.2215     -5507.5232     -299.64427      1587.9459      5331.167     
    394000   0.97565054     0.96657512     7.5639071     -2728.4412     -4193.3805      1464.9393     -4193.3805     -5532.3804     -300.98762      1639.9875      5649.05      
    395000   1.0564012      1.0257155      7.4757745     -2564.6229     -4150.8094      1586.1864     -4150.8094     -5428.7467     -300.38642      1578.3237      5715.2561    
    396000   0.98365885     0.984621       7.3132769     -2734.2713     -4211.235       1476.9638     -4211.235      -5487.0975     -297.77478      1573.6372      5365.6316    
    397000   0.99523961     1.0072514      7.1617318     -2744.0273     -4238.3795      1494.3523     -4238.3795     -5471.5699     -302.06642      1535.2568      5188.0301    
    398000   1.001595       1.0158931      7.2506224     -2691.3995     -4195.2944      1503.8949     -4195.2944     -5439.9645     -302.3013       1546.9715      5339.1097    
    399000   0.99528078     1.0132897      7.3390102     -2666.5991     -4161.0132      1494.4141     -4161.0132     -5427.2592     -304.77071      1571.0167      5461.805     
    400000   0.97108636     1.0368         7.3328653     -2662.5864     -4120.6725      1458.0862     -4120.6725     -5381.0802     -291.75994      1552.1676      5459.0118    
    401000   1.0167359      0.99573141     7.6945432     -2580.4136     -4107.0425      1526.6289     -4107.0425     -5433.7943     -300.84335      1627.5951      5941.765     
    402000   1.0231169      1.0123181      7.5186016     -2655.721      -4191.9311      1536.2101     -4191.9311     -5496.5172     -300.06273      1604.6489      5671.5916    
    403000   1.030162       1.0178897      7.6549312     -2572.9958     -4119.784       1546.7882     -4119.784      -5431.0565     -297.73418      1609.0067      5905.3102    
    404000   1.0122278      0.99997451     7.348246      -2687.5778     -4207.4379      1519.8601     -4207.4379     -5480.8427     -300.37478      1573.7796      5451.0555    
    405000   0.98957585     0.99399847     7.2075468     -2746.2833     -4232.1315      1485.8481     -4232.1315     -5475.934      -303.39317      1547.1957      5236.517     
    406000   0.99311395     1.0108628      7.3103173     -2730.9939     -4222.1545      1491.1606     -4222.1545     -5496.2008     -294.58877      1568.6351      5365.6311    
    407000   1.0045276      1.0353928      7.0502771     -2700.8504     -4209.1485      1508.2981     -4209.1485     -5411.0304     -296.85915      1498.741       5107.7641    
    408000   0.99433859     0.98945807     7.158084      -2675.0498     -4168.0492      1492.9994     -4168.0492     -5395.0094     -300.60011      1527.5603      5252.9673    
    409000   0.98803168     0.98476179     7.5270148     -2637.0684     -4120.598       1483.5296     -4120.598      -5430.5432     -301.69674      1611.6419      5699.5622    
    410000   0.99169258     1.0021879      7.2710596     -2671.9519     -4160.9783      1489.0264     -4160.9783     -5400.4726     -300.0462       1539.5405      5381.1927    
    411000   1.0230509      1.0237243      7.0272854     -2659.6644     -4195.7754      1536.1109     -4195.7754     -5402.3946     -300.74428      1507.3636      5123.4853    
    412000   0.97336409     0.98634873     7.804579      -2669.1117     -4130.6179      1461.5062     -4130.6179     -5482.8418     -301.01833      1653.2422      5974.9384    
    413000   0.97813001     0.99174941     7.5834676     -2671.5138     -4140.176       1468.6622     -4140.176      -5441.1095     -302.41639      1603.3499      5727.6418    
    414000   0.9420625      0.99771703     7.2227399     -2786.487      -4200.9939      1414.5068     -4200.9939     -5470.4123     -301.8817       1571.3001      5213.1406    
    415000   0.9672094      1.0036176      7.3782189     -2743.0872     -4195.3521      1452.2649     -4195.3521     -5485.9002     -298.53768      1589.0857      5428.7429    
    416000   0.99769339     1.0102201      7.3286566     -2683.8945     -4181.9311      1498.0366     -4181.9311     -5437.2747     -301.22952      1556.5731      5433.0423    
    417000   1.0009548      0.99527342     7.2125399     -2684.9912     -4187.9248      1502.9336     -4187.9248     -5431.156      -304.53853      1547.7697      5303.3392    
    418000   0.99762298     0.99375035     7.421331      -2674.1227     -4172.0536      1497.9309     -4172.0536     -5448.9285     -298.72697      1575.6019      5545.4567    
    419000   1.0321569      0.99877868     7.4853994     -2674.3133     -4224.0969      1549.7836     -4224.0969     -5537.1127     -299.93453      1612.9503      5616.2258    
    420000   0.97527613     0.9955517      7.0273075     -2769.2495     -4233.6266      1464.3771     -4233.6266     -5436.9417     -302.40715      1505.7223      5013.9248    
    421000   1.0009003      1.0067389      7.5737871     -2649.6757     -4152.5274      1502.8517     -4152.5274     -5467.0701     -298.69296      1613.2356      5738.7581    
    422000   0.99698908     0.99719588     7.320699      -2736.418      -4233.3971      1496.9791     -4233.3971     -5497.7339     -304.65835      1568.9951      5371.7052    
    423000   0.98570343     0.99866691     7.2341347     -2755.42       -4235.4537      1480.0337     -4235.4537     -5483.0441     -299.74622      1547.3367      5256.8281    
    424000   0.99030815     0.99678337     7.1116616     -2763.0449     -4249.9926      1486.9477     -4249.9926     -5472.8134     -302.42895      1525.2498      5113.5567    
    425000   0.99743885     1.0009563      7.8541223     -2622.3477     -4120.0021      1497.6544     -4120.0021     -5475.8787     -303.44222      1659.3188      6076.5746    
    426000   1.0278875      1.0215399      7.3249633     -2636.967      -4180.34        1543.3731     -4180.34       -5435.1306     -295.44745      1550.238       5475.8794    
    427000   0.97691177     0.98309569     7.3882772     -2704.8951     -4171.7281      1466.833      -4171.7281     -5454.3503     -296.33753      1578.9597      5478.0752    
    428000   1.0062855      0.99017238     7.3841138     -2663.6446     -4174.5822      1510.9377     -4174.5822     -5445.208      -298.98243      1569.6082      5514.7145    
    429000   1.0389515      1.0124725      7.1643375     -2699.7716     -4259.7572      1559.9856     -4259.7572     -5485.0183     -296.05219      1521.3133      5235.1718    
    430000   0.99786099     1.0009533      7.5679027     -2635.255      -4133.5433      1498.2883     -4133.5433     -5446.5801     -301.68384      1614.7206      5746.6615    
    431000   1.0215937      1.0259446      7.2028226     -2701.6857     -4235.6086      1533.9229     -4235.6086     -5471.5785     -302.22098      1538.1909      5275.8823    
    432000   1.0180502      0.99542061     7.4318486     -2649.8995     -4178.5019      1528.6023     -4178.5019     -5444.3902     -303.46114      1569.3495      5581.3288    
    433000   0.97825756     1.001796       7.4185756     -2688.4022     -4157.2559      1468.8537     -4157.2559     -5438.5777     -299.10156      1580.4233      5528.1255    
    434000   1.0538761      1.0294349      7.3621387     -2606.89       -4189.285       1582.395      -4189.285      -5432.7967     -299.04646      1542.5581      5547.1304    
    435000   0.98224936     0.99422306     7.4216904     -2781.3844     -4256.2318      1474.8474     -4256.2318     -5550.7612     -302.70302      1597.2325      5438.5931    
    436000   0.973707       0.990051       7.1579807     -2873.655      -4335.676       1462.0211     -4335.676      -5596.2745     -302.35702      1562.9555      5054.2478    
    437000   1.020977       1.015134       7.4104776     -2663.5602     -4196.5572      1532.997      -4196.5572     -5471.9277     -296.21708      1571.5875      5543.9984    
    438000   0.97530548     0.97995428     7.7230618     -2662.2345     -4126.6557      1464.4212     -4126.6557     -5457.4374     -304.94924      1635.731       5891.5303    
    439000   0.96348805     0.98398703     7.2822677     -2704.8296     -4151.5069      1446.6773     -4151.5069     -5401.619      -303.89397      1554.006       5360.7287    
    440000   1.0161748      0.9979215      7.2412482     -2656.4864     -4182.2729      1525.7864     -4182.2729     -5419.5655     -301.52141      1538.814       5363.6402    
    441000   0.99519077     0.97954986     7.4172051     -2703.894      -4198.173       1494.2789     -4198.173      -5485.566      -301.94224      1589.3352      5511.1157    
    442000   1.0336462      1.0239766      7.5483247     -2627.7441     -4179.7639      1552.0198     -4179.7639     -5477.3737     -300.67985      1598.2897      5732.4887    
    443000   1.0756183      1.0356188      7.6555432     -2549.7631     -4164.804       1615.0409     -4164.804      -5478.1322     -300.51563      1613.8439      5929.2206    
    444000   1.0144758      1.0178111      7.7661818     -2559.0219     -4082.2573      1523.2354     -4082.2573     -5436.0722     -301.95642      1655.7713      6042.501     
    445000   1.0227784      1.0254206      7.5540893     -2591.1657     -4126.8675      1535.7018     -4126.8675     -5419.5221     -298.5365       1591.1912      5775.4517    
    446000   0.97305673     1.0018656      7.6343725     -2691.66       -4152.7047      1461.0447     -4152.7047     -5480.1363     -302.64037      1630.072       5763.8759    
    447000   1.0195358      1.0114559      7.5040984     -2591.9262     -4122.7592      1530.833      -4122.7592     -5412.4237     -299.6847       1589.3492      5719.3232    
    448000   1.0205229      1.0119006      7.9036276     -2633.1766     -4165.4918      1532.3152     -4165.4918     -5546.8283     -301.71404      1683.0506      6120.5759    
    449000   1.0203498      1.0137293      7.2258289     -2718.1189     -4250.1742      1532.0553     -4250.1742     -5510.0452     -302.2084       1562.0794      5284.9299    
    450000   0.99952037     0.98717933     7.5356722     -2701.0405     -4201.8203      1500.7798     -4201.8203     -5510.1591     -301.70338      1610.0422      5645.1788    
    451000   0.98427647     0.97829928     7.6244725     -2637.9053     -4115.7964      1477.8911     -4115.7964     -5419.5977     -303.14492      1606.9462      5806.6658    
    452000   0.99030833     0.96378397     7.3797969     -2649.7388     -4136.6868      1486.948      -4136.6868     -5409.3432     -299.33052      1571.987       5523.839     
    453000   0.95048896     0.991912       6.8473517     -2875.8792     -4303.0384      1427.1592     -4303.0384     -5497.2627     -300.93514      1495.1594      4707.9829    
    454000   1.02162        1.021664       7.6988484     -2620.5599     -4154.5223      1533.9624     -4154.5223     -5488.8308     -300.83943      1635.148       5906.3871    
    455000   0.98773343     0.99724841     7.1563794     -2774.8357     -4257.9175      1483.0817     -4257.9175     -5504.6531     -295.38814      1542.1238      5151.2935    
    456000   1.0250365      1.0167741      7.4158256     -2645.3231     -4184.4153      1539.0923     -4184.4153     -5459.5766     -303.5835       1578.7448      5568.1588    
    457000   0.93591779     0.9685184      7.4144865     -2776.0022     -4181.2827      1405.2806     -4181.2827     -5477.4132     -299.44811      1595.5785      5435.9966    
    458000   1.057489       1.0059052      7.5241938     -2594.4665     -4182.2862      1587.8197     -4182.2862     -5493.1686     -291.74508      1602.6275      5739.0398    
    459000   1.0305998      1.034428       7.4543253     -2626.1543     -4173.5999      1547.4456     -4173.5999     -5445.9112     -300.18798      1572.4993      5629.9683    
    460000   1.0341289      1.0118948      7.1026486     -2694.9279     -4247.6725      1552.7446     -4247.6725     -5469.4867     -299.54937      1521.3636      5171.6912    
    461000   0.97528544     0.99419357     7.3895786     -2726.3296     -4190.7206      1464.3911     -4190.7206     -5456.9834     -303.12228      1569.385       5458.0822    
    462000   1.0115759      0.99821241     7.4591445     -2678.7884     -4197.6696      1518.8812     -4197.6696     -5478.7256     -298.74415      1579.8002      5582.6718    
    463000   1.0247128      1.0072285      7.2678837     -2742.1662     -4280.7725      1538.6063     -4280.7725     -5523.1376     -302.5322       1544.8973      5307.4609    
    464000   1.0081769      0.99768134     7.5474247     -2629.1374     -4142.9151      1513.7777     -4142.9151     -5451.9651     -301.00457      1610.0546      5730.0985    
    465000   0.95804588     0.97016683     7.698158      -2706.1637     -4144.6696      1438.5059     -4144.6696     -5481.1822     -301.82806      1638.3406      5820.0186    
    466000   0.98675199     1.0151775      7.5814313     -2697.881      -4179.4891      1481.6081     -4179.4891     -5503.6376     -295.94531      1620.0938      5699.0193    
    467000   0.9793796      1.0145117      6.9197984     -2776.9011     -4247.4395      1470.5385     -4247.4395     -5452.4376     -300.50836      1505.5064      4887.2002    
    468000   1.0270025      0.98488502     7.4493818     -2701.1487     -4243.1929      1542.0442     -4243.1929     -5531.8955     -302.52827      1591.2308      5549.4987    
    469000   0.99011645     0.9603075      7.5337151     -2650.4685     -4137.1284      1486.6598     -4137.1284     -5440.7109     -300.80172      1604.3843      5693.5832    
    470000   0.9668036      1.0150712      7.169831      -2774.2626     -4225.9182      1451.6556     -4225.9182     -5464.3569     -298.63631      1537.075       5166.7651    
    471000   0.99433339     0.98988494     7.4735231     -2660.8463     -4153.8378      1492.9916     -4153.8378     -5447.2674     -297.43159      1590.8611      5616.5391    
    472000   0.97748799     0.97726175     7.1398589     -2822.885      -4290.5832      1467.6982     -4290.5832     -5523.5386     -301.8063       1534.7617      5084.9468    
    473000   1.0247895      0.99191496     7.4689911     -2659.2221     -4197.9435      1538.7214     -4197.9435     -5481.545      -299.8645       1583.466       5613.1438    
    474000   1.0218014      1.0200222      7.1985958     -2662.4585     -4196.6933      1534.2348     -4196.6933     -5423.1493     -305.2342       1531.6902      5310.4281    
    475000   0.97100352     0.99536363     7.6316906     -2732.9298     -4190.8916      1457.9618     -4190.8916     -5525.4814     -299.08252      1633.6723      5719.6357    
    476000   1.0064387      1.0033501      7.4588747     -2697.0033     -4208.1711      1511.1677     -4208.1711     -5487.567      -303.15227      1582.5482      5564.158     
    477000   0.97976151     1.0015584      7.2284062     -2779.9397     -4251.0516      1471.1119     -4251.0516     -5497.3866     -299.58997      1545.9249      5225.9637    
    478000   0.9248532      0.95729849     7.7069707     -2749.0892     -4137.7563      1388.6671     -4137.7563     -5498.7819     -301.10939      1662.135       5786.8537    
    479000   1.0137515      1.0261147      7.761421      -2643.1094     -4165.2572      1522.1478     -4165.2572     -5511.185      -301.89598      1647.8238      5953.1405    
    480000   0.98496955     0.98833614     7.6121651     -2636.946      -4115.8778      1478.9318     -4115.8778     -5429.4681     -301.91691      1615.5072      5793.9939    
    481000   1.0023637      0.99873571     7.4428859     -2763.8804     -4268.9295      1505.0491     -4268.9295     -5575.4019     -302.22083      1608.6932      5479.5724    
    482000   1.0043419      1.0146085      7.3636661     -2658.0598     -4166.0791      1508.0194     -4166.0791     -5423.5032     -302.8954       1560.3195      5497.6522    
    483000   1.0798958      1.030371       7.3999363     -2585.586      -4207.0495      1621.4635     -4207.0495     -5473.6666     -300.6815       1567.2986      5610.2975    
    484000   0.99603219     0.9986573      7.5163113     -2730.9616     -4226.5039      1495.5423     -4226.5039     -5542.2743     -300.13448      1615.9049      5593.8144    
    485000   1.0305011      1.0070957      7.4589447     -2624.6552     -4171.9527      1547.2974     -4171.9527     -5447.4155     -298.64627      1574.1091      5636.5836    
    486000   0.98104967     1.0047441      7.7455012     -2642.0811     -4115.1272      1473.0461     -4115.1272     -5458.0385     -300.41436      1643.3257      5936.5367    
    487000   0.99940863     0.98183081     7.6011652     -2632.4347     -4133.0467      1500.6121     -4133.0467     -5455.8635     -303.88295      1626.6997      5786.3221    
    488000   1.0303426      1.012664       7.6005227     -2632.7399     -4179.7993      1547.0594     -4179.7993     -5489.3943     -298.32245      1607.9174      5785.3053    
    489000   1.0248023      1.0015376      7.3776948     -2714.1746     -4252.9152      1538.7406     -4252.9152     -5538.7297     -302.98784      1588.8024      5457.0751    
    490000   1.0310708      1.0075364      7.4876019     -2651.1444     -4199.2971      1548.1527     -4199.2971     -5484.9287     -300.47822      1586.1098      5641.8341    
    491000   1.0493749      1.027154       7.4338655     -2658.8651     -4234.5015      1575.6364     -4234.5015     -5523.8343     -301.87049      1591.2033      5574.597     
    492000   1.0130059      0.99897802     7.5239902     -2685.8387     -4206.8671      1521.0284     -4206.8671     -5499.5912     -302.49754      1595.2217      5647.4421    
    493000   0.96048079     0.97465204     7.3109436     -2729.836      -4171.9979      1442.1619     -4171.9979     -5433.1774     -301.73305      1562.9126      5367.4827    
    494000   0.982545       0.99388949     7.862536      -2628.4735     -4103.7649      1475.2913     -4103.7649     -5477.7165     -295.37049      1669.3221      6079.7675    
    495000   1.0048812      1.0049422      7.5012737     -2678.8247     -4187.6539      1508.8291     -4187.6539     -5473.9439     -304.07223      1590.3622      5629.2962    
    496000   1.0035105      0.99520175     7.1812738     -2729.7267     -4236.4977      1506.771      -4236.4977     -5485.2009     -299.42539      1548.1286      5223.9746    
    497000   0.97764784     0.97962765     7.8220548     -2600.7826     -4068.7208      1467.9382     -4068.7208     -5415.5004     -299.61528      1646.3949      6062.623     
    498000   1.0112841      1.0023223      7.1786518     -2698.913      -4217.3561      1518.443      -4217.3561     -5442.9575     -301.97363      1527.575       5251.8843    
    499000   0.98600506     1.0138666      7.701001      -2658.2066     -4138.6932      1480.4866     -4138.6932     -5475.7664     -303.58168      1640.6549      5871.1245    
    500000   0.93104788     0.94504774     7.3704132     -2837.6101     -4235.5785      1397.9684     -4235.5785     -5529.3947     -302.80734      1596.6236      5325.5748    
    501000   1.0195942      1.016791       7.7633641     -2597.7291     -4128.6498      1530.9207     -4128.6498     -5486.3543     -298.0693       1655.7738      6000.6729    
    502000   0.99509483     0.99415234     7.8214997     -2676.026      -4170.1609      1494.1349     -4170.1609     -5537.9191     -299.14409      1666.9023      5986.7648    
    503000   0.96685489     0.97531427     7.3032376     -2779.5816     -4231.3142      1451.7326     -4231.3142     -5488.7316     -300.72764      1558.1451      5309.2022    
    504000   1.0247657      1.0267091      7.6682327     -2637.9465     -4176.6321      1538.6856     -4176.6321     -5502.1688     -301.76043      1627.2971      5855.0917    
    505000   1.0129822      1.0194977      7.1565053     -2767.4825     -4288.4752      1520.9927     -4288.4752     -5525.818      -298.94305      1536.2858      5158.7861    
    506000   1.0626332      1.0211262      7.2358339     -2615.6691     -4211.2129      1595.5438     -4211.2129     -5429.8854     -302.01857      1520.6911      5398.4609    
    507000   0.99404191     1.0074998      7.1389633     -2738.7823     -4231.3363      1492.5539     -4231.3363     -5468.0431     -295.32289      1532.0297      5168.0575    
    508000   1.0107893      0.99035723     7.4836177     -2612.9979     -4130.698       1517.7001     -4130.698      -5417.2159     -298.52266      1585.0405      5675.5678    
    509000   0.99546438     0.99417401     7.2234238     -2736.8948     -4231.5846      1494.6898     -4231.5846     -5478.1961     -298.61154      1545.2231      5263.4903    
    510000   0.9887087      0.96981395     7.5288042     -2661.0887     -4145.6348      1484.5461     -4145.6348     -5456.6604     -300.98812      1612.0138      5677.5239    
    511000   1.0119127      1.0048861      7.3335841     -2693.1991     -4212.5861      1519.387      -4212.5861     -5482.0939     -300.39009      1569.8978      5429.1952    
    512000   1.0096883      1.0033292      7.1154143     -2720.8292     -4236.8762      1516.047      -4236.8762     -5470.9443     -299.81632      1533.8844      5159.9288    
    513000   0.92783718     0.94502623     7.1819341     -2789.4556     -4182.6031      1393.1475     -4182.6031     -5432.5996     -294.14215      1544.1387      5164.9771    
    514000   0.99046098     1.000522       7.6236224     -2631.7789     -4118.9561      1487.1772     -4118.9561     -5426.853      -300.45317      1608.3501      5811.8506    
    515000   1.0188112      1.0163224      7.3331489     -2667.2323     -4196.9773      1529.745      -4196.9773     -5457.5943     -294.24092      1554.8579      5454.68      
    516000   1.011594       1.0185173      7.3364736     -2675.6485     -4194.5569      1518.9085     -4194.5569     -5460.0011     -300.71495      1566.1592      5449.9462    
    517000   0.96946369     0.99548973     7.349471      -2760.4548     -4216.1045      1455.6497     -4216.1045     -5491.261      -301.09365      1576.2502      5379.5353    
    518000   0.95463899     0.99291788     7.3469867     -2863.9928     -4297.3832      1433.3904     -4297.3832     -5594.9991     -299.33636      1596.9523      5273.2457    
    519000   0.98269683     0.97504773     7.4085325     -2686.3401     -4161.8594      1475.5193     -4161.8594     -5445.9333     -299.41253      1583.4864      5519.0641    
    520000   0.97987465     1.0044821      7.6705489     -2676.4454     -4147.7272      1471.2818     -4147.7272     -5471.553      -300.97761      1624.8034      5819.1581    
    521000   1.014169       0.99769369     7.672583      -2607.2094     -4129.9841      1522.7747     -4129.9841     -5452.782      -298.28177      1621.0796      5890.6471    
    522000   1.0224002      1.0127988      7.1129923     -2703.257      -4238.3909      1535.1339     -4238.3909     -5470.7441     -300.54304      1532.8963      5174.8184    
    523000   1.0199688      1.0183832      7.4285649     -2654.2328     -4185.7159      1531.4831     -4185.7159     -5469.0938     -296.75403      1580.1319      5573.3586    
    524000   1.0394544      1.0308301      7.1803388     -2671.4776     -4232.2184      1560.7408     -4232.2184     -5457.3083     -302.08313      1527.1731      5281.1882    
    525000   1.0088443      1.0156917      7.8104844     -2600.2663     -4115.0461      1514.7798     -4115.0461     -5470.1957     -294.92419      1650.0738      6050.3243    
    526000   1.0278173      0.99320145     7.1117327     -2733.1366     -4276.4044      1543.2677     -4276.4044     -5498.2732     -301.45321      1523.322       5143.5437    
    527000   0.98357551     1.0116135      7.2297841     -2789.8668     -4266.7054      1476.8386     -4266.7054     -5524.0316     -297.30062      1554.6268      5217.5627    
    528000   1.0082384      1.0194176      7.4992983     -2646.0037     -4159.8737      1513.87       -4159.8737     -5452.0611     -300.88697      1593.0744      5659.9293    
    529000   1.0018448      1.0208232      7.1444624     -2763.4167     -4267.6866      1504.2699     -4267.6866     -5516.3813     -299.05802      1547.7527      5149.5137    
    530000   1.0357859      1.0319167      7.3066921     -2742.7774     -4298.0099      1555.2325     -4298.0099     -5561.2713     -301.24144      1564.5028      5349.8324    
    531000   1.0072924      0.99988145     7.5011729     -2691.7294     -4204.1789      1512.4495     -4204.1789     -5506.7586     -302.46733      1605.0471      5616.2798    
    532000   1.0354721      0.99791092     7.6237586     -2672.6255     -4227.3868      1554.7614     -4227.3868     -5555.3812     -299.91389      1627.9083      5771.1549    
    533000   1.016664       1.0151052      7.270965      -2714.7945     -4241.3154      1526.5209     -4241.3154     -5505.9911     -296.11228      1560.788       5338.2453    
    534000   0.95722021     0.97287298     7.0772619     -2744.9033     -4182.1694      1437.2661     -4182.1694     -5401.0272     -297.47168      1516.3295      5093.5985    
    535000   1.0189348      1.0043378      7.1644296     -2749.5239     -4279.4545      1529.9306     -4279.4545     -5511.1567     -302.31916      1534.0213      5185.5215    
    536000   0.98735347     0.99566713     7.3088588     -2691.5887     -4174.0999      1482.5112     -4174.0999     -5434.5354     -295.83392      1556.2694      5403.4209    
    537000   1.0170729      1.0076871      7.3585343     -2672.2358     -4199.3708      1527.135      -4199.3708     -5460.75       -296.85768      1558.2369      5477.7924    
    538000   1.047152       1.0198581      7.6076314     -2597.7697     -4170.0685      1572.2988     -4170.0685     -5487.1743     -298.68013      1615.786       5828.1489    
    539000   1.019049       1.0298098      6.997195      -2704.1461     -4234.2482      1530.1021     -4234.2482     -5424.8467     -298.137        1488.7356      5045.6767    
    540000   1.0002412      1.0023819      7.0521263     -2755.4781     -4257.3402      1501.8622     -4257.3402     -5479.2623     -301.08984      1523.0119      5055.1845    
    541000   0.97053263     0.98449291     7.4899524     -2731.7129     -4188.9677      1457.2547     -4188.9677     -5502.5062     -297.01812      1610.5566      5563.8689    
    542000   0.99249104     0.99753897     7.2924427     -2740.4995     -4230.7248      1490.2253     -4230.7248     -5495.9739     -299.79821      1565.0473      5336.3282    
    543000   0.96668551     0.98854359     7.408204      -2717.0086     -4168.4869      1451.4783     -4168.4869     -5442.0028     -301.17876      1574.6947      5488.0318    
    544000   1.0108934      0.9861361      7.3928945     -2689.5637     -4207.4202      1517.8565     -4207.4202     -5492.1455     -300.81155      1585.5368      5498.5206    
    545000   0.94955146     0.97833151     7.3861707     -2761.8045     -4187.556       1425.7515     -4187.556      -5473.8206     -301.1917       1587.4562      5418.8327    
    546000   1.0058001      0.9857011      7.5618076     -2668.3563     -4178.5651      1510.2088     -4178.5651     -5492.258      -300.85173      1614.5446      5706.8096    
    547000   0.96239133     0.9954926      7.415198      -2719.427      -4164.4576      1445.0306     -4164.4576     -5429.3142     -301.9631       1566.8198      5493.3597    
    548000   0.99695139     0.99373471     7.4495571     -2645.9825     -4142.905       1496.9225     -4142.905      -5397.1625     -298.3959       1552.6534      5604.8591    
    549000   0.9639546      0.98966019     7.2742048     -2784.1745     -4231.5523      1447.3778     -4231.5523     -5487.8578     -303.49508      1559.8006      5272.4537    
    550000   0.969451       0.95209177     7.684503      -2727.2621     -4182.8928      1455.6307     -4182.8928     -5516.6778     -298.89778      1632.6827      5783.7964    
    551000   1.0957634      1.0788167      7.6854587     -2528.9422     -4174.231       1645.2888     -4174.231      -5497.9356     -298.22154      1621.9262      5983.1748    
    552000   1.0511301      1.0241574      7.5245143     -2640.3513     -4218.6232      1578.2719     -4218.6232     -5515.541      -300.46087      1597.3787      5693.5099    
    553000   0.98552112     0.98984376     7.4879153     -2730.1402     -4209.9001      1479.76       -4209.9001     -5496.356      -303.3779       1589.8338      5563.1854    
    554000   1.0077941      1.0180583      7.4814971     -2634.7703     -4147.9732      1513.2029     -4147.9732     -5432.6653     -301.02623      1585.7184      5651.4468    
    555000   0.97335626     0.97227843     7.3639562     -2724.7508     -4186.2453      1461.4944     -4186.2453     -5471.7997     -292.36505      1577.9195      5431.2825    
    556000   1.0112058      0.99794973     7.5821955     -2639.2814     -4157.607       1518.3255     -4157.607      -5478.5291     -299.7706       1620.6927      5758.4652    
    557000   1.0276311      1.004526       7.4359199     -2620.2677     -4163.2558      1542.9881     -4163.2558     -5430.9008     -295.99454      1563.6394      5615.4697    
    558000   1.0435694      1.0445837      7.3599081     -2621.9886     -4188.908       1566.9194     -4188.908      -5457.3059     -299.71111      1568.109       5529.5612    
    559000   1.0102649      0.99956116     7.0767278     -2750.3498     -4267.2626      1516.9128     -4267.2626     -5483.8895     -300.91355      1517.5404      5087.5603    
    560000   0.97633841     0.99871511     7.6271354     -2595.0659     -4061.038       1465.9721     -4061.038      -5384.9203     -297.13384      1621.0161      5852.4545    
    561000   1.0322133      1.0054672      7.3785238     -2640.3324     -4190.2006      1549.8683     -4190.2006     -5463.706      -303.11952      1576.6249      5531.8355    
    562000   0.98655618     0.98578132     7.4754111     -2676.5111     -4157.8252      1481.3141     -4157.8252     -5446.2011     -297.14749      1585.5234      5602.9654    
    563000   1.0018362      0.99537287     7.1426832     -2687.7623     -4192.0194      1504.2571     -4192.0194     -5417.6678     -303.98968      1529.6381      5223.1976    
    564000   1.0295689      1.0011208      7.3365812     -2755.4955     -4301.3932      1545.8977     -4301.3932     -5574.6875     -303.34946      1576.6438      5370.2184    
    565000   1.0157965      0.98494572     7.3695391     -2737.0425     -4262.261       1525.2185     -4262.261      -5537.0895     -302.70147      1577.53        5425.1742    
    566000   0.97713593     1.0140533      7.1774726     -2705.2466     -4172.4162      1467.1696     -4172.4162     -5403.7569     -300.97448      1532.3152      5244.2446    
    567000   1.0249855      1.0130035      7.546957      -2631.9336     -4170.9493      1539.0158     -4170.9493     -5461.4842     -300.63437      1591.1692      5726.7843    
    568000   0.98541265     0.99512961     7.2775155     -2681.1884     -4160.7855      1479.5971     -4160.7855     -5418.844      -298.61178      1556.6703      5379.1065    
    569000   0.99560147     0.99070403     7.2914338     -2745.5341     -4240.4297      1494.8956     -4240.4297     -5512.7144     -297.60477      1569.8894      5330.1762    
    570000   0.97495919     0.99455796     6.8103968     -2814.9671     -4278.8683      1463.9012     -4278.8683     -5437.6168     -304.14959      1462.8981      4727.9652    
    571000   0.97357176     0.98295217     7.8113496     -2648.6179     -4110.4359      1461.818      -4110.4359     -5475.8616     -299.11551      1664.5411      6002.931     
    572000   1.0196169      1.021005       7.3935412     -2701.7071     -4232.6619      1530.9548     -4232.6619     -5494.5763     -300.84104      1562.7555      5487.0934    
    573000   1.0159145      0.97757799     7.361175      -2672.62       -4198.0157      1525.3957     -4198.0157     -5472.4204     -298.74469      1573.1494      5480.333     
    574000   1.0086341      1.0108944      7.4078388     -2602.2184     -4116.6824      1514.4641     -4116.6824     -5389.115      -297.16218      1569.5948      5602.4177    
    575000   0.98104587     0.98390383     7.3489068     -2657.8307     -4130.871       1473.0404     -4130.871      -5388.474      -295.82799      1553.431       5481.5345    
    576000   1.046096       1.0445382      7.098099      -2625.2486     -4195.9618      1570.7131     -4195.9618     -5401.4873     -300.72595      1506.2515      5236.3315    
    577000   1.0114409      1.0185346      7.4007324     -2700.5343     -4219.2128      1518.6785     -4219.2128     -5490.7285     -300.47523      1571.9909      5496.2309    
    578000   0.9928697      0.99172453     7.6852889     -2673.559      -4164.3529      1490.7939     -4164.3529     -5503.2482     -299.77642      1638.6718      5838.37      
    579000   1.0045042      1.0179548      7.3088852     -2746.3155     -4254.5786      1508.2631     -4254.5786     -5511.9309     -302.26101      1559.6134      5348.7233    
    580000   0.95768344     0.98219642     7.4618184     -2773.338      -4211.2997      1437.9617     -4211.2997     -5508.6316     -302.0602       1599.3922      5491.0837    
    581000   1.0294222      1.0009789      7.2567553     -2720.7959     -4266.4734      1545.6775     -4266.4734     -5526.5047     -301.7872       1561.8185      5316.5058    
    582000   1.0395376      1.0058793      7.2440102     -2631.4863     -4192.352       1560.8657     -4192.352      -5427.3566     -302.86054      1537.8651      5391.6994    
    583000   1.006225       0.9998782      7.8201626     -2627.0777     -4137.9246      1510.8468     -4137.9246     -5480.7653     -297.36585      1640.2066      6034.2322    
    584000   0.986887       0.99326063     7.6314107     -2632.6192     -4114.4301      1481.8108     -4114.4301     -5421.6554     -301.59198      1608.8173      5819.6363    
    585000   1.0218727      1.0351835      7.918693      -2612.7774     -4147.1193      1534.3419     -4147.1193     -5521.741      -297.32443      1671.9461      6157.661     
    586000   1.0347619      1.0101433      7.6996558     -2623.0292     -4176.7242      1553.695      -4176.7242     -5502.4655     -302.0647       1627.8059      5904.812     
    587000   1.0397135      1.0262099      7.3806518     -2626.2442     -4187.3741      1561.1299     -4187.3741     -5455.8034     -299.64403      1568.0734      5548.2804    
    588000   0.98166003     1.0325489      7.3635987     -2776.7228     -4250.6853      1473.9625     -4250.6853     -5534.0718     -300.05934      1583.4458      5378.9146    
    589000   0.98611085     0.99129881     7.2469677     -2766.3967     -4247.0422      1480.6454     -4247.0422     -5492.3879     -304.6653       1550.011       5260.0647    
    590000   1.0097385      0.99812263     7.5151492     -2657.1247     -4173.247       1516.1223     -4173.247      -5487.9561     -299.21673      1613.9258      5666.3642    
    591000   0.98169282     0.97896224     7.2652025     -2685.8594     -4159.8712      1474.0118     -4159.8712     -5403.463      -300.06183      1543.6537      5360.7981    
    592000   1.0102977      1.0194379      7.1985027     -2695.6013     -4212.5632      1516.9619     -4212.5632     -5456.7329     -303.37059      1547.5403      5277.1821    
    593000   1.021622       1.0285098      7.661611      -2597.9894     -4131.9549      1533.9655     -4131.9549     -5448.0563     -295.36611      1611.4675      5887.7149    
    594000   1.0004092      0.99635736     7.5730382     -2700.3904     -4202.5049      1502.1145     -4202.5049     -5529.1184     -294.00955      1620.623       5687.214     
    595000   1.002344       0.99062212     7.0262367     -2751.2532     -4256.2728      1505.0196     -4256.2728     -5458.4465     -303.70895      1505.8827      5030.735     
    596000   1.0434571      1.0322161      7.1527874     -2666.3119     -4233.0628      1566.7509     -4233.0628     -5461.8587     -297.33423      1526.1301      5255.839     
    597000   1.0252842      1.024171       7.4016754     -2685.1312     -4224.5954      1539.4642     -4224.5954     -5492.4105     -299.9756       1567.7906      5512.6784    
    598000   1.0148471      1.0067869      7.9501324     -2600.9341     -4124.7271      1523.793      -4124.7271     -5503.0962     -299.3266       1677.6958      6204.3253    
    599000   0.956355       1.0032143      7.2233781     -2787.4583     -4223.4253      1435.967      -4223.4253     -5463.0414     -300.04497      1539.661       5212.8762    
    600000   0.99866572     1.001401       7.426736      -2708.2616     -4207.7582      1499.4966     -4207.7582     -5503.2666     -297.85967      1593.368       5517.3041    
colvars: Saving collective variables state to "equil.colvars.state".
Loop time of 5715 on 1 procs for 500000 steps with 1002 atoms

Performance: 37795.294 tau/day, 87.489 timesteps/s
100.0% CPU use with 1 MPI tasks x 1 OpenMP threads

MPI task timing breakdown:
Section |  min time  |  avg time  |  max time  |%varavg| %total
---------------------------------------------------------------
Pair    | 25.47      | 25.47      | 25.47      |   0.0 |  0.45
Kspace  | 5590.3     | 5590.3     | 5590.3     |   0.0 | 97.82
Neigh   | 0.064278   | 0.064278   | 0.064278   |   0.0 |  0.00
Comm    | 53.419     | 53.419     | 53.419     |   0.0 |  0.93
Output  | 0.065733   | 0.065733   | 0.065733   |   0.0 |  0.00
Modify  | 40.965     | 40.965     | 40.965     |   0.0 |  0.72
Other   |            | 4.683      |            |       |  0.08

Nlocal:           1002 ave        1002 max        1002 min
Histogram: 1 0 0 0 0 0 0 0 0 0
Nghost:           7704 ave        7704 max        7704 min
Histogram: 1 0 0 0 0 0 0 0 0 0
Neighs:              0 ave           0 max           0 min
Histogram: 1 0 0 0 0 0 0 0 0 0

Total # of neighbors = 0
Ave neighs/atom = 0
Neighbor list builds = 47053
Dangerous builds = 0

undump         1
unfix          1
unfix          2
unfix          3

#####################################################
# Production (NVT Sphere with colvars)

reset_timestep 0
fix		         1 all nve/sphere update dipole
fix            2 all langevin 1.0 1.0 1.0 214323 omega yes
fix            3 ions colvars input.colvars input equil output prod

thermo		     1000
thermo_style	 custom step temp c_tempSph press etotal pe ke epair ecoul elong evdwl enthalpy
WARNING: New thermo_style command, previous thermo_modify settings will be lost (../output.cpp:903)
thermo_modify  norm no
dump	       	 1 all custom 10000 dump.dipoleProd id type x y z q mux muy muz

timestep	     0.005
run		         500000

CITE-CITE-CITE-CITE-CITE-CITE-CITE-CITE-CITE-CITE-CITE-CITE-CITE

Your simulation uses code contributions which should be cited:

- Colvars module (Fiorin2013, plus other works listed for specific features)


% Colvars module:
% Colvars-LAMMPS interface:
% Optimal rotation via flexible fitting:
% distance colvar component:
% harmonicWalls colvar bias implementation:

@article{Fiorin2013,
  author = {Fiorin, Giacomo and Klein, Michael L.{} and H\'enin, J\'er\^ome},
  title = {Using collective variables to drive molecular dynamics simulations},
  journal = {Mol. Phys.},
  year = {2013},
  volume = {111},
  number = {22-23},
  pages = {3345--3362},
  publisher = {Taylor & Francis},
  doi = {10.1080/00268976.2013.813594},
  url = {https://doi.org/10.1080/00268976.2013.813594}
}


% ABF colvar bias implementation:
% Internal-forces free energy estimator:

@article{Henin2010,
  author = {H\'enin, J\'er\^ome and Fiorin, Giacomo and Chipot, Christophe and Klein, Michael L.},
  title = {Exploring multidimensional free energy landscapes using time-dependent biases on collective variables},
  journal = {J. Chem. Theory Comput.},
  year = {2010},
  volume = {6},
  pages = {35-47},
  number = {1},
  doi = {10.1021/ct9004432},
  pmid = {26614317},
  url = {https://doi.org/10.1021/ct9004432}
}


% LAMMPS engine:

@article{Plimpton1995,
  title = {Fast parallel algorithms for short-range molecular dynamics},
  author = {Plimpton, Steve},
  journal = {J. Comp. Phys.},
  year = {1995},
  volume = {117},
  number = {1},
  pages = {1--19},
  doi = {10.1006/jcph.1995.1039},
  url = {https://doi.org/10.1006/jcph.1995.1039}
}

CITE-CITE-CITE-CITE-CITE-CITE-CITE-CITE-CITE-CITE-CITE-CITE-CITE

EwaldDisp initialization ...
Generated 3 of 3 mixed pair_coeff terms from geometric mixing rule
  G vector = 0.55961375,   accuracy = 0.0001
Generated 3 of 3 mixed pair_coeff terms from geometric mixing rule
colvars: Creating proxy instance
colvars: ----------------------------------------------------------------------
colvars: Initializing the collective variables module, version 2022-05-24.
colvars: Please cite Fiorin et al, Mol Phys 2013:
colvars:   https://doi.org/10.1080/00268976.2013.813594
colvars: as well as all other papers listed below for individual features used.
colvars: This version was built with the C++11 standard or higher.
colvars: Using LAMMPS interface, version "2022-05-09".
colvars: ----------------------------------------------------------------------
colvars: Reading new configuration from file "input.colvars":
colvars: # units = "" [default]
colvars: # indexFile = "groups.ndx"
colvars: The following index groups are currently defined:
colvars:   cation (1 atoms)
colvars:   anion (1 atoms)
colvars: # smp = on [default]
colvars: # colvarsTrajFrequency = 1000
colvars: # colvarsRestartFrequency = 0 [default]
colvars: # scriptedColvarForces = off [default]
colvars: # scriptingAfterBiases = off [default]
colvars: ----------------------------------------------------------------------
colvars:   Initializing a new collective variable.
colvars:   # name = "dist"
colvars:   Initializing a new "distance" component.
colvars:     # name = "" [default]
colvars:     # componentCoeff = 1 [default]
colvars:     # componentExp = 1 [default]
colvars:     # period = 0 [default]
colvars:     # wrapAround = 0 [default]
colvars:     # forceNoPBC = off [default]
colvars:     # scalable = on [default]
colvars:       Initializing atom group "group1".
colvars:       # name = "" [default]
colvars:       # centerToOrigin = off [default]
colvars:       # centerToReference = off [default]
colvars:       # rotateToReference = off [default]
colvars:       # atomsOfGroup = "" [default]
colvars:       # indexGroup = "cation"
colvars:       # psfSegID =  [default]
colvars:       # atomsFile = "" [default]
colvars:       # dummyAtom = ( 0 , 0 , 0 ) [default]
colvars:       # enableFitGradients = on [default]
colvars:       # printAtomIDs = off [default]
colvars:       Atom group "group1" defined with 1 atoms requested.
colvars:       Initializing atom group "group2".
colvars:       # name = "" [default]
colvars:       # centerToOrigin = off [default]
colvars:       # centerToReference = off [default]
colvars:       # rotateToReference = off [default]
colvars:       # atomsOfGroup = "" [default]
colvars:       # indexGroup = "anion"
colvars:       # psfSegID =  [default]
colvars:       # atomsFile = "" [default]
colvars:       # dummyAtom = ( 0 , 0 , 0 ) [default]
colvars:       # enableFitGradients = on [default]
colvars:       # printAtomIDs = off [default]
colvars:       Atom group "group2" defined with 1 atoms requested.
colvars:     # oneSiteSystemForce = off [default]
colvars:     # oneSiteTotalForce = off [default]
colvars:   All components initialized.
colvars:   # timeStepFactor = 1 [default]
colvars:   # width = 0.01
colvars:   # lowerBoundary = 0.75
colvars:   # upperBoundary = 2.5
colvars:   # hardLowerBoundary = off [default]
colvars:   # hardUpperBoundary = off [default]
colvars:   # expandBoundaries = off [default]
colvars:   # extendedLagrangian = off [default]
colvars:   # outputValue = on [default]
colvars:   # outputVelocity = off [default]
colvars:   # outputTotalForce = off [default]
colvars:   # outputAppliedForce = off [default]
colvars:   # subtractAppliedForce = off [default]
colvars:   # runAve = off [default]
colvars:   # corrFunc = off [default]
colvars: ----------------------------------------------------------------------
colvars: Collective variables initialized, 1 in total.
colvars: ----------------------------------------------------------------------
colvars:   Initializing a new "abf" instance.
colvars:   # name = "abf_dist"
colvars:   # colvars = { dist }
colvars:   # stepZeroData = off [default]
colvars:   # outputEnergy = on
colvars:   # outputFreq = 1000
colvars:   # timeStepFactor = 1 [default]
colvars:   WARNING: ABF should not be run without a thermostat or at 0 Kelvin!
colvars:   # applyBias = on [default]
colvars:   # updateBias = on [default]
colvars:   # hideJacobian = off [default]
colvars:   Jacobian (geometric) forces will be included in reported free energy gradients.
colvars:   # fullSamples = 1000
colvars:   # inputPrefix =  [default]
colvars:   # historyFreq = 1000000
colvars:   # shared = off [default]
colvars:   # maxForce =  [default]
colvars:   # integrate = on [default]
colvars:   Finished ABF setup.
colvars: ----------------------------------------------------------------------
colvars:   Initializing a new "harmonicwalls" instance.
colvars:   # name = "wall_dist"
colvars:   # colvars = { dist }
colvars:   # stepZeroData = off [default]
colvars:   # outputEnergy = off [default]
colvars:   # outputFreq = 0 [default]
colvars:   # timeStepFactor = 1 [default]
colvars:   # writeTISamples = off [default]
colvars:   # writeTIPMF = off [default]
colvars:   # forceConstant = 1 [default]
colvars:   # targetForceConstant = -1 [default]
colvars:   # lowerWalls = { 0.7 }
colvars:   # upperWalls = { 2.55 }
colvars:   # lowerWallConstant = 1
colvars:   # upperWallConstant = 1
colvars:   The lower wall force constant for colvar "dist" will be rescaled to 10000 according to the specified width (0.01).
colvars:   The upper wall force constant for colvar "dist" will be rescaled to 10000 according to the specified width (0.01).
colvars: ----------------------------------------------------------------------
colvars: Collective variables biases initialized, 2 in total.
colvars: ----------------------------------------------------------------------
colvars: Collective variables module (re)initialized.
colvars: ----------------------------------------------------------------------
colvars: ----------------------------------------------------------------------
colvars: Loading state from file "equil.colvars.state".
colvars:   Restarting collective variable "dist" from value: 2.16353
colvars:   Restarting abf bias "abf_dist" from step number 600000.
colvars:   Restarting harmonicwalls bias "wall_dist" from step number 600000.
colvars: ----------------------------------------------------------------------
colvars: The restart output state file will be "rest.colvars.state".
colvars: The final output state file will be "prod.colvars.state".
colvars: Opening trajectory file "prod.colvars.traj".
colvars: Re-initialized atom group for variable "dist":0/0. 1 atoms: total mass = 1.2767, total charge = 13.626.
colvars: Re-initialized atom group for variable "dist":0/1. 1 atoms: total mass = 3.9411, total charge = -13.626.
colvars:   Prepared sample and gradient buffers at step 600000.
Per MPI rank memory allocation (min/avg/max) = 18.22 | 18.22 | 18.22 Mbytes
   Step          Temp        c_tempSph        Press          TotEng         PotEng         KinEng         E_pair         E_coul         E_long         E_vdwl        Enthalpy   
         0   0.99866572     1.001401       7.426736      -2708.2616     -4207.7582      1499.4966     -4207.7582     -5503.2666     -297.85967      1593.3681      5517.3042    
      1000   0.95699273     0.97396251     7.6073688     -2753.7282     -4190.6528      1436.9246     -4190.6528     -5518.6767     -305.53615      1633.56        5671.8995    
      2000   0.99774412     1.0230063      7.4496956     -2693.5989     -4191.7117      1498.1128     -4191.7117     -5481.7294     -300.19355      1590.2112      5557.396     
      3000   0.97639157     0.98891994     7.6788901     -2609.3775     -4075.4295      1466.0519     -4075.4295     -5394.5662     -302.51896      1621.6557      5895.4644    
      4000   0.9662984      0.9785936      7.6746166     -2701.1285     -4152.0256      1450.897      -4152.0256     -5477.8951     -303.07562      1628.9452      5798.9802    
      5000   1.0177438      1.0091532      7.0706276     -2653.1774     -4181.3198      1528.1424     -4181.3198     -5389.1141     -298.93286      1506.7272      5177.9764    
      6000   0.99666966     1.0059321      7.3482423     -2686.9263     -4183.4258      1496.4995     -4183.4258     -5457.0215     -298.65228      1572.248       5451.7029    
      7000   1.0265593      1.0280958      7.2482738     -2675.9005     -4217.2793      1541.3788     -4217.2793     -5470.1771     -301.8265       1554.7243      5352.0074    
      8000   1.0119502      0.97663359     7.5560641     -2667.9483     -4187.3915      1519.4432     -4187.3915     -5475.7909     -302.80241      1591.2018      5700.8563    
      9000   1.0397527      1.0251229      7.3828299     -2574.0211     -4135.2098      1561.1887     -4135.2098     -5396.4975     -298.20554      1559.4933      5602.916     
     10000   1.0188497      1.0270293      7.1594462     -2749.0467     -4278.8495      1529.8029     -4278.8495     -5517.4902     -302.73619      1541.3769      5180.4792    
     11000   1.0312389      1.013101       7.5990716     -2608.1077     -4156.5128      1548.4051     -4156.5128     -5456.5199     -302.97936      1602.9864      5808.3303    
     12000   1.0526739      1.0231171      7.5369399     -2606.2185     -4186.8084      1580.5899     -4186.8084     -5485.4142     -304.6524       1603.2582      5741.4048    
     13000   1.0109507      1.0063241      7.3457186     -2731.5562     -4249.4987      1517.9425     -4249.4987     -5508.9253     -301.25674      1560.6833      5404.2778    
     14000   1.0420374      1.0232091      7.6176873     -2645.605      -4210.2241      1564.6192     -4210.2241     -5536.5148     -301.31506      1627.6058      5791.4511    
     15000   1.0041949      0.98207424     7.6847921     -2664.7535     -4172.5522      1507.7987     -4172.5522     -5504.1373     -299.10364      1630.6888      5846.6253    
     16000   0.97848842     0.99989088     6.9157805     -2795.4071     -4264.6075      1469.2004     -4264.6075     -5448.1285     -301.97221      1485.4932      4864.2441    
     17000   1.0319506      1.0195796      7.1685668     -2585.5215     -4134.9954      1549.4739     -4134.9954     -5348.4884     -295.71627      1509.2094      5354.1061    
     18000   1.0036329      1.0062638      7.1745574     -2716.9537     -4223.9086      1506.9548     -4223.9086     -5452.5168     -300.2223       1528.8306      5229.3088    
     19000   0.99522437     1.0237816      7.2692247     -2767.5188     -4261.8482      1494.3294     -4261.8482     -5533.3295     -303.4413       1574.9225      5283.5935    
     20000   0.98687092     1.0085438      7.8692868     -2642.9421     -4124.7288      1481.7867     -4124.7288     -5487.7505     -295.64271      1658.6644      6072.7758    
     21000   1.0312433      1.0027923      7.891886      -2561.8342     -4110.246       1548.4118     -4110.246      -5475.8104     -300.77926      1666.3436      6178.9137    
     22000   1.0145002      1.0148168      7.3465985     -2722.8936     -4246.1657      1523.2721     -4246.1657     -5518.7548     -302.69114      1575.2802      5413.9149    
     23000   0.99641843     1.002453       7.6314491     -2658.691      -4154.8132      1496.1223     -4154.8132     -5480.452      -298.96035      1624.5991      5793.6072    
     24000   1.043703       1.0391644      7.2502822     -2656.0164     -4223.1364      1567.12       -4223.1364     -5463.7199     -300.13218      1540.7157      5374.116     
     25000   1.0046728      0.98299348     7.2146917     -2642.2405     -4150.7566      1508.5161     -4150.7566     -5392.0637     -298.69256      1539.9997      5348.4733    
     26000   0.9876937      1.0160086      7.1980602     -2768.9265     -4251.9485      1483.0221     -4251.9485     -5500.0564     -302.44298      1550.5508      5203.3669    
     27000   0.9781634      0.96683805     7.4862937     -2720.9988     -4189.7112      1468.7123     -4189.7112     -5486.126      -300.60665      1597.0215      5570.5308    
     28000   0.9882079      0.98920186     7.399743      -2721.6792     -4205.4733      1483.7942     -4205.4733     -5491.6483     -298.65192      1584.8269      5473.9902    
     29000   1.0237624      0.99673127     7.5260232     -2619.8217     -4157.0009      1537.1792     -4157.0009     -5448.4469     -302.79374      1594.2397      5715.7107    
     30000   0.98241054     0.97325542     7.6859151     -2586.1341     -4061.2235      1475.0894     -4061.2235     -5376.2864     -299.67633      1614.7392      5926.4884    
     31000   1.0350901      0.99830476     7.2949039     -2650.0804     -4204.2682      1554.1878     -4204.2682     -5438.4718     -301.17323      1535.3768      5429.4733    
     32000   1.0130166      1.0206474      7.2543591     -2693.9757     -4215.0201      1521.0444     -4215.0201     -5463.5342     -299.50968      1548.0238      5340.6721    
     33000   1.0015284      1.0017008      7.3016466     -2701.8186     -4205.6135      1503.7949     -4205.6135     -5480.1857     -295.70904      1570.2812      5385.203     
     34000   1.0281383      1.0060486      7.0703007     -2695.0446     -4238.7943      1543.7496     -4238.7943     -5462.7665     -298.72529      1522.6975      5135.7472    
     35000   0.96053621     0.97449006     7.2591324     -2763.6694     -4205.9145      1442.2451     -4205.9145     -5468.3276     -304.51014      1566.9233      5276.2651    
     36000   1.0671215      1.0239106      7.5191458     -2578.2595     -4180.5424      1602.2829     -4180.5424     -5474.5522     -301.20522      1595.215       5749.6559    
     37000   1.0099         1.0348717      7.2686501     -2673.7741     -4190.139       1516.3649     -4190.139      -5443.3474     -301.49919      1554.7076      5376.7019    
     38000   0.97158621     0.97875159     7.5293761     -2753.1391     -4211.9758      1458.8367     -4211.9758     -5529.3229     -304.66817      1622.0153      5586.1069    
     39000   0.96604252     0.98008296     7.1915424     -2759.6988     -4210.2117      1450.5128     -4210.2117     -5443.2088     -299.97001      1532.9671      5205.3756    
     40000   0.97875727     0.97181044     7.1912434     -2725.4235     -4195.0275      1469.604      -4195.0275     -5424.2983     -301.16247      1530.4332      5239.3198    
     41000   0.99791092     1.0051524      7.50001       -2655.0714     -4153.4347      1498.3633     -4153.4347     -5441.8744     -305.55703      1593.9967      5651.6498    
     42000   0.97898706     0.96677784     7.3532336     -2705.0078     -4174.9569      1469.9491     -4174.9569     -5441.6885     -301.41478      1568.1464      5439.1495    
     43000   1.0269237      1.0258957      7.1079939     -2756.7403     -4298.6663      1541.926      -4298.6663     -5529.9423     -301.19272      1532.4687      5115.799     
     44000   0.96060406     0.97749083     7.9360206     -2660.1495     -4102.4965      1442.347      -4102.4965     -5488.0698     -302.51651      1688.0898      6129.4803    
     45000   0.96497622     0.97629367     7.1849386     -2694.4308     -4143.3426      1448.9118     -4143.3426     -5370.9667     -299.61347      1527.2375      5263.3295    
     46000   0.98901692     0.99741086     7.7038542     -2597.8604     -4082.8693      1485.0089     -4082.8693     -5416.1422     -297.81279      1631.0857      5934.6308    
     47000   1.0561251      1.0184575      7.5859973     -2574.0756     -4159.8474      1585.7718     -4159.8474     -5457.5053     -297.07275      1594.7306      5827.8819    
     48000   1.0000287      0.99245979     7.5736072     -2585.9817     -4087.5248      1501.5431     -4087.5248     -5383.5819     -300.59547      1596.6525      5802.2529    
     49000   0.97888899     0.97551491     7.2972868     -2726.2073     -4196.0091      1469.8018     -4196.0091     -5458.6732     -295.45747      1558.1215      5355.9855    
     50000   1.0254064      1.0070617      6.8562514     -2713.9818     -4253.6296      1539.6478     -4253.6296     -5416.5201     -304.21045      1467.101       4879.7372    
     51000   1.0147453      1.0003675      7.4971476     -2601.7683     -4125.4083      1523.6401     -4125.4083     -5421.6983     -300.06529      1596.3553      5701.7827    
     52000   1.0272987      1.0108376      7.5607275     -2625.925      -4168.414       1542.489      -4168.414      -5464.1981     -301.24188      1597.026       5748.0447    
     53000   1.0231074      1.0125368      7.4655054     -2653.36       -4189.5557      1536.1957     -4189.5557     -5484.6008     -300.20333      1595.2484      5615.1453    
     54000   1.0199164      1.0164277      7.5739902     -2640.494      -4171.8984      1531.4044     -4171.8984     -5489.1095     -297.75526      1614.9663      5748.1648    
     55000   1.0494929      1.029499       7.0685125     -2669.1257     -4244.9393      1575.8136     -4244.9393     -5438.9591     -305.18973      1499.2095      5159.6856    
     56000   1.0047789      1.0156554      7.6617844     -2665.7702     -4174.4457      1508.6755     -4174.4457     -5495.1633     -301.81837      1622.536       5820.1261    
     57000   1.0173918      0.9990973      7.1688613     -2722.5775     -4250.1912      1527.6138     -4250.1912     -5473.1794     -305.02656      1528.0148      5217.3763    
     58000   1.0268622      1.0066429      7.7487915     -2602.3131     -4144.1467      1541.8336     -4144.1467     -5479.7651     -300.40035      1636.0188      5979.949     
     59000   0.98177117     1.0141319      7.2922618     -2725.8376     -4199.967       1474.1294     -4199.967      -5455.7107     -306.29152      1562.0352      5350.7898    
     60000   1.0393434      1.0595215      7.6008152     -2622.8619     -4183.436       1560.5741     -4183.436      -5490.7313     -297.59268      1604.888       5795.5072    
     61000   1.0215538      1.0081163      7.4796073     -2684.8123     -4218.6753      1533.8631     -4218.6753     -5509.9397     -299.80363      1591.068       5599.3117    
     62000   1.0020794      1.0078334      6.8501485     -2741.6478     -4246.2699      1504.6222     -4246.2699     -5400.0681     -301.91735      1455.7155      4845.312     
     63000   0.97140746     0.98793863     7.4292723     -2708.7114     -4167.2797      1458.5683     -4167.2797     -5454.5773     -302.97139      1590.269       5519.6635    
     64000   0.98412188     0.98379427     6.9738935     -2731.0116     -4208.6706      1477.659      -4208.6706     -5390.8536     -299.32387      1481.5069      4993.0034    
     65000   0.9544677      0.95806144     7.2037255     -2739.1312     -4172.2645      1433.1333     -4172.2645     -5406.9242     -302.4009       1537.0606      5239.4367    
     66000   1.0353654      1.0293389      7.8184187     -2586.6565     -4141.2576      1554.6012     -4141.2576     -5487.8764     -294.88829      1641.5071      6072.7219    
     67000   1.0128441      0.98426131     7.3933719     -2691.2358     -4212.0212      1520.7854     -4212.0212     -5493.5251     -304.09456      1585.5985      5497.3772    
     68000   1.014809       1.0132332      7.1823182     -2678.4964     -4202.2322      1523.7357     -4202.2322     -5439.8452     -297.6637       1535.2767      5276.3616    
     69000   0.94578498     0.98399929     7.0814371     -2794.182      -4214.2781      1420.0962     -4214.2781     -5428.313      -299.24484      1513.2797      5048.9441    
     70000   1.0185486      0.99725778     7.3308978     -2697.2328     -4226.5836      1529.3508     -4226.5836     -5496.0268     -298.06833      1567.5115      5422.1862    
     71000   1.0028719      0.98860893     7.3528092     -2669.9186     -4175.7308      1505.8122     -4175.7308     -5440.5893     -298.54239      1563.4009      5473.7687    
     72000   1.0484889      1.0287783      7.3469507     -2715.8396     -4290.1458      1574.3062     -4290.1458     -5561.258      -305.13308      1576.2453      5421.359     
     73000   1.0051157      1.0194893      7.3823533     -2667.8452     -4177.0264      1509.1813     -4177.0264     -5446.0234     -300.30643      1569.3034      5508.5641    
     74000   1.0123612      1.0011522      7.4888875     -2663.3348     -4183.3952      1520.0603     -4183.3952     -5469.7651     -299.5321       1585.902       5631.0676    
     75000   1.0180286      1.0017513      7.5085824     -2644.4654     -4173.0354      1528.5699     -4173.0354     -5462.6882     -300.19534      1589.8482      5671.7502    
     76000   1.0320278      1.0601208      7.5087785     -2649.783      -4199.3727      1549.5897     -4199.3727     -5495.8272     -300.07693      1596.5314      5666.6499    
     77000   1.0271951      1.018323       7.1882509     -2716.8463     -4259.1798      1542.3335     -4259.1798     -5498.1609     -301.68934      1540.6704      5244.5825    
     78000   0.95223571     0.96242212     7.2210526     -2849.2664     -4279.0483      1429.7819     -4279.0483     -5542.5641     -303.49876      1567.0146      5148.4925    
     79000   1.0431925      1.0152578      7.4163215     -2640.2459     -4206.5994      1566.3535     -4206.5994     -5476.5891     -299.02401      1569.0137      5573.7852    
     80000   1.0162335      1.0135839      7.6072198     -2667.673      -4193.5477      1525.8746     -4193.5477     -5492.5106     -304.2603       1603.2233      5757.7896    
     81000   1.0001905      0.99440438     7.3796956     -2706.6685     -4208.4546      1501.7861     -4208.4546     -5489.6154     -300.42239      1581.5832      5466.7972    
     82000   1.0003652      0.98543292     7.4678211     -2671.6859     -4173.7342      1502.0483     -4173.7342     -5453.5106     -296.95178      1576.7282      5599.3841    
     83000   1.0060243      0.9944458      7.36965       -2602.9959     -4113.5414      1510.5455     -4113.5414     -5362.69       -299.43543      1548.584       5559.3436    
     84000   1.0092773      0.99117464     7.3689573     -2668.4879     -4183.9177      1515.4298     -4183.9177     -5456.5117     -304.09597      1576.6899      5493.0844    
     85000   1.031848       1.0030574      7.4732817     -2587.2124     -4136.5321      1549.3197     -4136.5321     -5421.8607     -295.77164      1581.1002      5689.9056    
     86000   1.0063108      0.99849566     7.6719799     -2585.094      -4096.0696      1510.9757     -4096.0696     -5417.5547     -299.16467      1620.6498      5912.0945    
     87000   1.0473621      1.0386771      7.3304459     -2624.2305     -4196.8447      1572.6142     -4196.8447     -5449.062      -302.85032      1555.0676      5494.6881    
     88000   1.0260593      1.0041082      7.2970761     -2573.7598     -4114.3878      1540.628      -4114.3878     -5357.671      -301.09206      1544.3752      5508.1997    
     89000   0.98370135     0.99808934     7.6941644     -2702.8571     -4179.8847      1477.0276     -4179.8847     -5528.1172     -297.63779      1645.8703      5818.9021    
     90000   1.0177162      0.97965455     7.2543761     -2692.3821     -4220.483       1528.1009     -4220.483      -5463.8815     -299.57783      1542.9764      5342.2846    
     91000   1.0204858      1.0009507      7.2855921     -2651.745      -4184.0045      1532.2595     -4184.0045     -5432.9254     -300.80829      1549.7292      5417.4953    
     92000   0.98752967     0.99503599     7.3450462     -2699.6978     -4182.4736      1482.7758     -4182.4736     -5444.3835     -301.29576      1563.2057      5435.3916    
     93000   1.0374848      1.0303097      7.5961873     -2610.9883     -4168.7718      1557.7835     -4168.7718     -5479.4154     -292.23131      1602.8748      5802.2552    
     94000   0.99339414     1.0013374      7.2927831     -2697.3877     -4188.969       1491.5813     -4188.969      -5452.1982     -296.74332      1559.9726      5379.817     
     95000   0.99468678     0.99520879     7.2959134     -2729.4595     -4222.9818      1493.5222     -4222.9818     -5493.533      -294.48892      1565.0402      5351.2122    
     96000   0.97705263     0.99172138     7.5203368     -2671.315      -4138.3595      1467.0445     -4138.3595     -5434.0693     -298.4533       1594.1631      5657.9195    
     97000   1.0057172      1.0008634      7.1353723     -2724.9877     -4235.072       1510.0844     -4235.072      -5458.9776     -303.94185      1527.8474      5177.875     
     98000   1.0126913      0.98433294     7.3213408     -2655.0693     -4175.6252      1520.5559     -4175.6252     -5418.241      -300.45692      1543.0727      5453.7648    
     99000   0.97978391     0.97965346     7.8779589     -2661.7052     -4132.8507      1471.1455     -4132.8507     -5500.9982     -299.24855      1667.396       6063.6177    
    100000   1.0119531      1.0223134      7.8276059     -2598.419      -4117.8666      1519.4476     -4117.8666     -5475.0833     -300.54922      1657.766       6071.1348    
    101000   0.98702622     0.98548283     7.405543      -2705.5049     -4187.5248      1482.0199     -4187.5248     -5463.5024     -301.49912      1577.4767      5496.5883    
    102000   1.0282622      1.0140031      7.3796225     -2667.0157     -4210.9515      1543.9358     -4210.9515     -5494.5129     -305.0543       1588.6157      5506.369     
    103000   1.0402841      1.0128751      7.5501377     -2617.1627     -4179.1492      1561.9866     -4179.1492     -5478.8327     -297.36973      1597.0531      5745.078     
    104000   1.0176927      1.025597       7.6415242     -2625.3555     -4153.4211      1528.0656     -4153.4211     -5472.0744     -301.94979      1620.6031      5838.1014    
    105000   0.9889266      0.99278676     7.4799967     -2701.7967     -4186.6699      1484.8733     -4186.6699     -5468.9114     -302.55971      1584.8011      5582.7587    
    106000   0.99000891     1.0002207      7.7660564     -2692.6696     -4179.168       1486.4984     -4179.168      -5522.244      -300.7746       1643.8506      5908.7143    
    107000   1.0631223      1.0173698      7.6160722     -2635.0782     -4231.3564      1596.2782     -4231.3564     -5541.9771     -301.22024      1611.8409      5800.189     
    108000   1.0168186      1.0129849      7.4927143     -2613.3685     -4140.1216      1526.7531     -4140.1216     -5421.9051     -298.16995      1579.9534      5685.2723    
    109000   0.99639621     1.0048828      7.3280221     -2768.653      -4264.7419      1496.0889     -4264.7419     -5546.2436     -304.37011      1585.8718      5347.5811    
    110000   1.0088569      1.0173237      7.4469368     -2644.4202     -4159.2188      1514.7986     -4159.2188     -5441.1442     -305.17544      1587.1009      5603.5192    
    111000   0.98829541     1.0017979      7.3079934     -2722.3319     -4206.2575      1483.9256     -4206.2575     -5482.3146     -298.19032      1574.2474      5371.7191    
    112000   0.97170128     0.96872295     7.545211      -2720.347      -4179.3565      1459.0095     -4179.3565     -5496.695      -299.0983       1616.4368      5636.4371    
    113000   1.0222824      1.0051666      7.3029208     -2683.6755     -4218.6326      1534.9571     -4218.6326     -5473.1757     -298.01193      1552.555       5404.7573    
    114000   1.0108269      0.99546057     7.1224636     -2711.1562     -4228.9128      1517.7566     -4228.9128     -5447.0699     -300.97129      1519.1283      5177.4092    
    115000   1.0327587      1.0065358      7.6436917     -2652.7634     -4203.4506      1550.6872     -4203.4506     -5536.4217     -295.03774      1628.0088      5813.0941    
    116000   1.0142947      1.0018112      7.466067      -2626.4402     -4149.4036      1522.9634     -4149.4036     -5419.5818     -299.95473      1570.1329      5642.6871    
    117000   1.0066973      1.0141228      7.523067      -2652.7966     -4164.3526      1511.556      -4164.3526     -5457.7248     -298.70158      1592.0737      5679.4617    
    118000   0.97747317     0.99242158     7.1216305     -2796.7128     -4264.3888      1467.676      -4264.3888     -5497.9605     -300.18368      1533.7554      5090.9299    
    119000   1.0235023      1.017515       7.5418028     -2666.2134     -4203.0021      1536.7887     -4203.0021     -5529.2052     -299.1326       1625.3357      5686.7959    
    120000   0.98099022     0.9820711      7.4581858     -2705.3342     -4178.291       1472.9568     -4178.291      -5476.9151     -298.35144      1596.9756      5555.0642    
    121000   1.0061166      1.0139707      7.3590935     -2644.2551     -4154.9392      1510.6841     -4154.9392     -5425.1601     -297.06925      1567.2901      5506.3924    
    122000   1.0110199      1.010632       7.5326018     -2632.6064     -4150.6528      1518.0464     -4150.6528     -5443.5895     -302.6175       1595.5542      5710.2122    
    123000   0.99375602     0.97636874     7.1857255     -2739.118      -4231.2427      1492.1247     -4231.2427     -5463.3767     -300.0293       1532.1634      5219.5139    
    124000   1.0235828      1.019468       7.3121175     -2640.642      -4177.5515      1536.9096     -4177.5515     -5439.1533     -298.95624      1560.5581      5457.9768    
    125000   0.99317237     0.99782519     7.320179      -2656.3415     -4147.5898      1491.2483     -4147.5898     -5410.564      -299.60548      1562.5796      5451.2058    
    126000   0.99837724     0.98230643     7.1438016     -2702.3512     -4201.4147      1499.0634     -4201.4147     -5430.5581     -294.44084      1523.5843      5209.8473    
    127000   0.98461377     0.99858012     7.7529877     -2683.7476     -4162.1452      1478.3976     -4162.1452     -5510.2623     -299.82667      1647.9438      5903.162     
    128000   1.0310675      1.0176752      7.1875657     -2681.4527     -4229.6005      1548.1478     -4229.6005     -5463.0573     -300.59654      1534.0534      5279.2173    
    129000   1.0074435      0.98954142     7.4440907     -2676.1064     -4188.7827      1512.6764     -4188.7827     -5474.6556     -298.75011      1584.6229      5568.6808    
    130000   1.0188382      1.0146544      7.5775426     -2577.472      -4107.2576      1529.7856     -4107.2576     -5405.273      -302.31622      1600.3316      5815.1213    
    131000   0.98946897     0.96664799     7.4491226     -2717.2103     -4202.8979      1485.6877     -4202.8979     -5481.1849     -300.75439      1579.0414      5533.15      
    132000   1.0163034      0.99416282     7.1754087     -2720.3638     -4246.3433      1525.9795     -4246.3433     -5477.5475     -298.71499      1529.9192      5226.8416    
    133000   0.98912439     0.99786953     7.3601484     -2679.9752     -4165.1454      1485.1703     -4165.1454     -5435.1119     -303.51983      1573.4863      5471.8408    
    134000   1.0221398      1.0208972      7.2252205     -2680.5559     -4215.2989      1534.743      -4215.2989     -5465.7658     -301.10127      1551.5682      5321.8191    
    135000   1.0129273      1.0351978      7.1515772     -2739.5146     -4260.4249      1520.9104     -4260.4249     -5499.1544     -299.0229       1537.7524      5181.296     
    136000   1.039572       1.0125453      7.3491669     -2648.4651     -4209.3824      1560.9173     -4209.3824     -5465.0509     -300.8518       1556.5202      5491.1881    
    137000   0.99908093     1.000803       7.678205      -2682.5011     -4182.6211      1500.12       -4182.6211     -5513.0365     -302.0163       1632.4317      5821.582     
    138000   1.0159696      1.0110587      7.412205      -2648.4106     -4173.8889      1525.4783     -4173.8889     -5446.2406     -299.72192      1572.0736      5561.0612    
    139000   1.0093062      1.0032301      7.1117337     -2673.2418     -4188.715       1515.4732     -4188.715      -5407.9278     -302.84727      1522.0601      5203.4396    
    140000   0.99769897     0.98804827     7.565578      -2653.2614     -4151.3064      1498.045      -4151.3064     -5451.026      -300.72257      1600.4422      5726.0805    
    141000   1.0280562      1.0282965      6.8872908     -2746.0524     -4289.6787      1543.6263     -4289.6787     -5474.5433     -304.49763      1489.3622      4882.0448    
    142000   0.99575024     1.0252728      7.5132161     -2683.0447     -4178.1637      1495.119      -4178.1637     -5490.5402     -299.53482      1611.9113      5638.303     
    143000   0.97826222     0.98332205     7.2887006     -2745.0017     -4213.8624      1468.8607     -4213.8624     -5477.5815     -300.61682      1564.3359      5327.6815    
    144000   0.97388631     0.97509328     7.3899675     -2757.2549     -4219.5452      1462.2903     -4219.5452     -5511.1726     -302.40812      1594.0355      5427.5876    
    145000   0.97575352     1.0159611      7.5406846     -2670.9915     -4136.0854      1465.0939     -4136.0854     -5445.7032     -299.76868      1609.3866      5680.7794    
    146000   0.98894973     0.99985296     7.4764932     -2713.6898     -4198.5978      1484.908      -4198.5978     -5498.085      -301.92912      1601.4164      5566.9852    
    147000   1.0462019      1.0452474      7.4011897     -2703.3886     -4274.2607      1570.8721     -4274.2607     -5556.5585     -300.04047      1582.3383      5493.8831    
    148000   1.0354303      1.0199253      7.1422585     -2710.058      -4264.7565      1554.6985     -4264.7565     -5480.6088     -300.51654      1516.3688      5200.4315    
    149000   0.97430501     0.9722972      7.9117624     -2680.4219     -4143.3409      1462.919      -4143.3409     -5526.463      -298.39483      1681.5169      6082.3404    
    150000   1.0399766      1.0234332      7.7029161     -2626.7459     -4188.2708      1561.5249     -4188.2708     -5525.7976     -298.42113      1635.9479      5904.7062    
    151000   0.95773107     1.0014661      7.8115604     -2637.753      -4075.7862      1438.0332     -4075.7862     -5431.3019     -299.77616      1655.2919      6014.0294    
    152000   1.0321105      0.99833785     7.0135329     -2749.3384     -4299.0523      1549.7139     -4299.0523     -5503.9633     -301.57388      1506.4849      5018.5797    
    153000   0.97331984     0.98629702     7.2898569     -2736.7302     -4198.1699      1461.4397     -4198.1699     -5472.7981     -297.712        1572.3402      5337.2336    
    154000   1.0059626      1.0037852      7.6954259     -2609.7552     -4120.208       1510.4528     -4120.208      -5459.7131     -297.70617      1637.2112      5913.4011    
    155000   1.0745541      1.0188994      7.8365099     -2530.4388     -4143.8818      1613.443      -4143.8818     -5503.5743     -299.18755      1658.88        6148.9767    
    156000   1.0150739      1.0030208      7.0473174     -2679.9255     -4204.059       1524.1335     -4204.059      -5409.0617     -300.37723      1505.3799      5125.4108    
    157000   0.96837472     1.002577       7.5169603     -2713.7446     -4167.7592      1454.0146     -4167.7592     -5475.9444     -300.09297      1608.2782      5611.7502    
    158000   1.0494332      1.0219637      7.3312762     -2589.6278     -4165.3518      1575.724      -4165.3518     -5424.7166     -302.53043      1561.8952      5530.2104    
    159000   0.95841136     0.99388819     7.2270981     -2765.5478     -4204.6025      1439.0547     -4204.6025     -5453.954      -297.97516      1547.3267      5238.9067    
    160000   1.0151686      0.99805393     7.5978241     -2601.7167     -4125.9924      1524.2757     -4125.9924     -5445.9235     -300.25984      1620.191       5813.3397    
    161000   1.0179307      0.99989114     7.4383874     -2693.4269     -4221.8498      1528.4229     -4221.8498     -5501.6973     -304.41274      1584.2602      5545.0435    
    162000   1.0302108      1.0298598      7.49022       -2634.8314     -4181.6929      1546.8615     -4181.6929     -5470.1941     -300.07888      1588.5801      5661.0468    
    163000   0.93749192     0.95751784     7.1582317     -2744.1984     -4151.8425      1407.6441     -4151.8425     -5390.3086     -298.98014      1537.4462      5183.9825    
    164000   1.0529262      1.0335211      7.1766522     -2692.0892     -4273.0579      1580.9686     -4273.0579     -5509.7954     -300.59094      1537.3285      5256.4933    
    165000   1.0009134      0.9962313      7.4815957     -2737.0031     -4239.8745      1502.8714     -4239.8745     -5529.6319     -298.75271      1588.5101      5549.3232    
    166000   1.0294492      1.023855       7.4326444     -2661.9016     -4207.6196      1545.718      -4207.6196     -5493.4192     -298.43135      1584.2309      5570.2081    
    167000   1.0024532      1.011577       6.8953988     -2702.1071     -4207.2905      1505.1835     -4207.2905     -5390.2535     -299.96109      1482.924       4934.9702    
    168000   1.0051636      0.99780273     7.5867466     -2614.3559     -4123.609       1509.2531     -4123.609      -5428.7947     -297.82981      1603.0155      5788.4314    
    169000   0.98203973     1.0086919      7.7026931     -2620.5391     -4095.0718      1474.5327     -4095.0718     -5418.0971     -294.45894      1617.4843      5910.6661    
    170000   1.0234489      1.004969       7.5229005     -2658.7717     -4195.4802      1536.7085     -4195.4802     -5486.8972     -300.60655      1592.0235      5673.3022    
    171000   1.008773       1.0121624      7.1389456     -2740.5854     -4255.258       1514.6726     -4255.258      -5505.1813     -296.80462      1546.7279      5166.2348    
    172000   0.95946513     0.99089357     7.1907803     -2811.6526     -4252.2895      1440.6369     -4252.2895     -5494.5591     -302.74132      1545.0109      5152.5778    
    173000   1.0354516      1.0152612      7.6909976     -2573.2109     -4127.9415      1554.7306     -4127.9415     -5450.442      -301.46059      1623.9611      5945.0409    
    174000   1.0467222      1.0273627      7.592151      -2547.615      -4119.2685      1571.6534     -4119.2685     -5405.9698     -304.50116      1591.2025      5861.1581    
    175000   0.9815214      0.99363887     7.4609099     -2741.8419     -4215.5963      1473.7544     -4215.5963     -5524.407      -304.43304      1613.2438      5521.5735    
    176000   0.98815513     1.0052961      7.4485864     -2713.2875     -4197.0024      1483.7149     -4197.0024     -5492.2848     -299.9401       1595.2225      5536.479     
    177000   0.99182216     1.0104459      7.1899378     -2724.659      -4213.88        1489.221      -4213.88       -5456.5426     -297.97305      1540.6357      5238.6382    
    178000   0.99802857     0.98748352     7.3626327     -2666.1125     -4164.6524      1498.5399     -4164.6524     -5419.6324     -301.50468      1556.4847      5488.455     
    179000   1.0092008      0.99755556     7.9838762     -2503.5038     -4018.8188      1515.315      -4018.8188     -5392.5145     -297.55432      1671.2501      6339.129     
    180000   0.98569794     0.99764509     7.2585374     -2757.1225     -4237.1479      1480.0255     -4237.1479     -5495.1223     -293.39313      1551.3675      5282.153     
    181000   0.99970942     0.98722557     7.2530676     -2677.5354     -4178.5991      1501.0637     -4178.5991     -5416.4327     -299.22282      1537.0565      5355.682     
    182000   0.98701491     0.99160287     7.8882328     -2602.2528     -4084.2557      1482.0029     -4084.2557     -5449.6905     -302.60243      1668.0372      6134.449     
    183000   0.99587834     0.99152153     7.5470953     -2669.0282     -4164.3396      1495.3113     -4164.3396     -5465.5992     -300.9303       1602.1899      5689.8429    
    184000   1.0064253      1.0054935      7.4771319     -2654.3608     -4165.5084      1511.1477     -4165.5084     -5449.8691     -302.00084      1586.3615      5627.0215    
    185000   1.0178274      1.0028965      7.3322835     -2671.4035     -4199.6714      1528.2678     -4199.6714     -5454.2423     -303.26977      1557.8407      5449.5503    
    186000   0.98653321     0.99421901     7.4704533     -2732.6959     -4213.9755      1481.2796     -4213.9755     -5504.73       -298.96678      1589.7212      5541.2895    
    187000   1.0206204      1.0198317      7.5925562     -2658.6257     -4191.0873      1532.4615     -4191.0873     -5498.3231     -302.8302       1610.066       5750.596     
    188000   1.0021016      0.99801782     7.2475368     -2734.9044     -4239.56        1504.6556     -4239.56       -5484.9615     -300.17502      1545.5764      5292.1873    
    189000   0.98653993     0.98742838     7.254641      -2720.2881     -4201.5778      1481.2897     -4201.5778     -5454.8934     -300.55563      1553.8712      5314.6719    
    190000   0.96105744     0.97933145     7.123346      -2813.5723     -4256.6         1443.0277     -4256.6        -5496.4791     -302.78472      1542.6638      5075.9705    
    191000   1.0079529      1.0248179      7.0591645     -2692.5776     -4206.0189      1513.4413     -4206.0189     -5410.405      -302.71859      1507.1047      5125.8802    
    192000   1.0480774      1.0425687      7.5197122     -2641.5346     -4215.2228      1573.6882     -4215.2228     -5520.4052     -296.39899      1601.5814      5687.0081    
    193000   0.96771118     0.99024633     7.8372652     -2600.7464     -4053.7647      1453.0183     -4053.7647     -5400.4391     -299.98955      1646.6639      6079.5057    
    194000   0.99026048     1.0029542      7.6891958     -2682.3652     -4169.2413      1486.8761     -4169.2413     -5503.726      -299.61027      1634.0949      5833.8909    
    195000   1.0247185      1.0107471      7.3091625     -2597.43       -4136.0448      1538.6148     -4136.0448     -5390.3748     -299.92213      1554.2522      5497.9159    
    196000   1.0189334      1.0238006      7.6482744     -2560.7892     -4090.7177      1529.9286     -4090.7177     -5394.5308     -298.06449      1601.8776      5910.1439    
    197000   1.0328617      1.041265       7.2402332     -2655.8388     -4206.6806      1550.8418     -4206.6806     -5462.8319     -304.92361      1561.0749      5363.1637    
    198000   1.00915        1.0167533      7.4164188     -2708.0102     -4223.249       1515.2388     -4223.249      -5498.4771     -299.10432      1574.3325      5506.1287    
    199000   0.96705237     0.98760087     7.5705048     -2655.4376     -4107.4667      1452.0291     -4107.4667     -5418.743      -301.52298      1612.7992      5729.361     
    200000   1.0082194      1.0132597      7.562298      -2655.8096     -4169.651       1513.8414     -4169.651      -5484.2394     -301.06143      1615.6498      5719.8994    
    201000   1.019703       0.98883116     7.6626858     -2611.9493     -4143.0333      1531.0841     -4143.0333     -5472.426      -300.95863      1630.3513      5874.9453    
    202000   0.98319412     0.98576213     7.419164      -2686.6927     -4162.9587      1476.266      -4162.9587     -5444.4357     -302.86179      1584.3388      5530.4867    
    203000   0.97292816     0.98983076     7.2396041     -2752.2986     -4213.1502      1460.8516     -4213.1502     -5470.5113     -298.72736      1556.0885      5266.0071    
    204000   1.0104842      1.0169078      7.7986374     -2536.4287     -4053.6708      1517.2421     -4053.6708     -5403.0233     -297.00761      1646.3601      6101.0407    
    205000   1.0226525      1.0063829      7.6191593     -2638.5251     -4174.0378      1535.5128     -4174.0378     -5489.4998     -301.37958      1616.8415      5800.1613    
    206000   0.9414361      0.97634334     7.2609521     -2745.198      -4158.7643      1413.5663     -4158.7643     -5418.1707     -302.38107      1561.7875      5296.752     
    207000   0.97120719     0.96819489     7.4949088     -2645.9227     -4104.1903      1458.2676     -4104.1903     -5391.4865     -301.8392       1589.1355      5655.1486    
    208000   0.94468194     0.98048569     6.9775671     -2794.2411     -4212.6811      1418.4399     -4212.6811     -5416.5088     -301.57436      1505.4021      4933.8425    
    209000   0.99668907     1.0249929      7.7660815     -2589.7959     -4086.3246      1496.5286     -4086.3246     -5414.4577     -301.69153      1629.8247      6011.6159    
    210000   1.0211979      1.0330769      7.4325519     -2633.2185     -4166.5471      1533.3286     -4166.5471     -5448.6836     -300.84924      1582.9857      5598.7887    
    211000   1.0015672      0.99565341     7.2811869     -2706.0198     -4209.873       1503.8532     -4209.873      -5462.1818     -298.88116      1551.19        5358.3415    
    212000   0.98673094     0.99280775     7.1645188     -2728.5092     -4210.0857      1481.5765     -4210.0857     -5444.7782     -301.4467       1536.1392      5206.635     
    213000   1.0144869      1.013773       7.0696956     -2758.4023     -4281.6545      1523.2521     -4281.6545     -5496.1679     -297.07418      1511.5876      5071.7193    
    214000   1.0489758      1.0410665      7.6013699     -2618.3134     -4193.3506      1575.0371     -4193.3506     -5509.7672     -301.13425      1617.5509      5800.6701    
    215000   0.98595776     0.9891169      7.2838406     -2716.3248     -4196.7403      1480.4156     -4196.7403     -5458.5645     -297.46096      1559.2852      5350.9756    
    216000   1.0174463      1.0276078      7.2592685     -2694.8922     -4222.5878      1527.6956     -4222.5878     -5466.8778     -300.85221      1545.1422      5345.1931    
    217000   0.9980563      0.99138744     7.1160163     -2692.1217     -4190.7032      1498.5815     -4190.7032     -5403.1256     -299.87443      1512.2968      5189.303     
    218000   1.0099142      1.0094905      7.2435081     -2666.2656     -4182.6519      1516.3862     -4182.6519     -5431.5139     -299.5528       1548.4148      5356.3641    
    219000   1.002794       1.0077531      7.3950318     -2654.5922     -4160.2873      1505.6951     -4160.2873     -5423.8453     -301.76055      1565.3186      5535.8593    
    220000   0.97782378     0.97784171     7.0686864     -2804.2034     -4272.4058      1468.2024     -4272.4058     -5496.3107     -301.06505      1524.9699      5024.8004    
    221000   1.0413178      1.0307686      7.5817949     -2558.2917     -4121.8303      1563.5386     -4121.8303     -5437.9799     -298.49565      1614.6452      5839.0113    
    222000   1.0080963      1.0164907      7.6453543     -2646.0972     -4159.7538      1513.6566     -4159.7538     -5483.5688     -298.81429      1622.6293      5821.6017    
    223000   0.96868057     0.96053064     7.2916338     -2754.0078     -4208.4816      1454.4739     -4208.4816     -5480.6899     -298.44819      1570.6565      5321.9241    
    224000   1.0388181      1.0006079      7.5414837     -2617.7949     -4177.5802      1559.7853     -4177.5802     -5469.077      -301.26648      1592.7632      5734.861     
    225000   0.97277772     0.99401807     7.4114524     -2720.0067     -4180.6324      1460.6257     -4180.6324     -5478.9366     -295.19934      1593.5036      5488.6316    
    226000   1.0318583      1.0160662      7.5968618     -2617.5275     -4166.8627      1549.3352     -4166.8627     -5470.2625     -300.45345      1603.8532      5796.4631    
    227000   1.0372952      1.0334984      7.0308065     -2697.2954     -4254.7941      1557.4987     -4254.7941     -5458.9868     -301.03752      1505.2303      5089.7543    
    228000   0.94579808     0.97931296     7.1639109     -2846.47       -4266.5858      1420.1158     -4266.5858     -5514.6745     -303.37115      1551.4598      5088.0009    
    229000   0.9798595      0.98143323     7.5207363     -2734.4346     -4205.6937      1471.259      -4205.6937     -5513.1409     -299.89241      1607.3396      5595.2422    
    230000   1.026077       1.0256528      7.2799614     -2684.8217     -4225.4763      1540.6545     -4225.4763     -5491.6666     -301.06349      1567.2537      5378.1821    
    231000   0.97553571     0.97947318     6.9215408     -2809.3269     -4274.0938      1464.7669     -4274.0938     -5487.5829     -298.56268      1512.0518      4856.7042    
    232000   0.95522581     0.98014513     7.2859692     -2736.7827     -4171.0542      1434.2716     -4171.0542     -5436.938      -297.47329      1563.3571      5332.8752    
    233000   0.97434967     0.98589525     7.4461174     -2743.1908     -4206.1769      1462.986      -4206.1769     -5498.0487     -300.6674       1592.5392      5503.841     
    234000   1.0132667      1.00185        7.3324427     -2715.438      -4236.858       1521.42       -4236.858      -5498.6466     -303.88257      1565.6712      5405.6922    
    235000   1.0233634      1.0024755      7.433128      -2639.2572     -4175.8373      1536.5801     -4175.8373     -5456.6563     -301.41187      1582.2309      5593.3881    
    236000   1.0073449      0.98233685     7.4555071     -2647.4405     -4159.9689      1512.5283     -4159.9689     -5451.0233     -296.14113      1587.1956      5609.991     
    237000   1.0107382      1.0138817      7.6197487     -2726.3964     -4244.0198      1517.6233     -4244.0198     -5590.9432     -300.88223      1647.8057      5712.9427    
    238000   0.98180116     0.99177877     7.2025234     -2755.8152     -4229.9897      1474.1744     -4229.9897     -5462.3284     -302.04464      1534.3834      5221.4213    
    239000   1.0608306      1.0353147      7.387658      -2565.2528     -4158.0899      1592.8372     -4158.0899     -5421.0967     -301.66049      1564.6673      5617.0318    
    240000   0.98125646     0.98073069     7.2119554     -2720.8501     -4194.2066      1473.3566     -4194.2066     -5447.9857     -300.9313       1554.7104      5266.8331    
    241000   0.9921959      1.0002759      7.7588032     -2628.9925     -4118.7747      1489.7821     -4118.7747     -5473.8433     -300.39773      1655.4663      5964.3581    
    242000   0.9716041      1.0035126      7.7482036     -2732.1705     -4191.0341      1458.8636     -4191.0341     -5538.0452     -299.61622      1646.6273      5849.4403    
    243000   0.98210105     0.99576822     7.3844855     -2673.4292     -4148.0539      1474.6247     -4148.0539     -5419.736      -299.66206      1571.3442      5505.3416    
    244000   1.0028352      1.0073681      7.3494819     -2640.8233     -4146.5802      1505.757      -4146.5802     -5407.8218     -298.04348      1559.2851      5499.1788    
    245000   0.94563108     0.98888937     7.2578017     -2802.7526     -4222.6177      1419.8651     -4222.6177     -5466.4496     -304.80562      1548.6376      5235.7081    
    246000   0.96426862     0.97572863     7.1806853     -2726.2652     -4174.1145      1447.8493     -4174.1145     -5419.1624     -299.84286      1544.8907      5226.7843    
    247000   1.002151       1.005513       7.1996929     -2744.7783     -4249.5081      1504.7298     -4249.5081     -5484.2198     -304.03443      1538.7461      5229.3233    
    248000   0.99255174     1.0175067      7.7408466     -2615.1755     -4105.4919      1490.3164     -4105.4919     -5459.7048     -300.46214      1654.675       5958.287     
    249000   1.0267858      1.011201       7.4794773     -2649.6966     -4191.4156      1541.7189     -4191.4156     -5478.9002     -304.0423       1591.5269      5634.2834    
    250000   0.99029694     1.0053979      7.6261244     -2638.5472     -4125.478       1486.9309     -4125.478      -5438.5099     -294.16079      1607.1927      5807.8535    
    251000   1.0203376      1.0374547      7.5571342     -2590.8792     -4122.9161      1532.0369     -4122.9161     -5435.8081     -294.31607      1607.2081      5779.1106    
    252000   0.99005889     0.99691361     7.2329801     -2736.6098     -4223.1832      1486.5734     -4223.1832     -5473.3749     -299.04019      1549.2319      5274.3595    
    253000   0.92556297     0.97497141     7.1965802     -2798.5028     -4188.2356      1389.7328     -4188.2356     -5436.9381     -298.56472      1547.2673      5172.1514    
    254000   1.0112264      1.0052101      7.1759326     -2733.0927     -4251.4491      1518.3564     -4251.4491     -5493.4224     -303.19767      1545.171       5214.6929    
    255000   0.9761852      0.99413796     7.6054465     -2657.664      -4123.4061      1465.7421     -4123.4061     -5443.4391     -298.68569      1618.7187      5765.8345    
    256000   0.99732453     1.0112251      7.576743      -2645.2608     -4142.7436      1497.4828     -4142.7436     -5454.1137     -299.24912      1610.6193      5746.4469    
    257000   0.95250102     0.96793677     7.1036766     -2796.246      -4226.4262      1430.1803     -4226.4262     -5460.6113     -299.9458       1534.1309      5071.5117    
    258000   0.97348653     0.98958444     7.285348      -2788.908      -4250.598       1461.69       -4250.598      -5513.5631     -299.51911      1562.4842      5280.0619    
    259000   0.97457718     0.98676857     7.6772774     -2682.1401     -4145.4677      1463.3276     -4145.4677     -5478.4613     -301.16873      1634.1624      5820.9157    
    260000   1.0253661      1.0251257      7.5242104     -2639.1096     -4178.6967      1539.5871     -4178.6967     -5464.6466     -304.96742      1590.9173      5694.4151    
    261000   0.98534302     0.99900501     7.4230597     -2705.1186     -4184.6112      1479.4926     -4184.6112     -5469.1608     -298.10591      1582.6555      5516.3754    
    262000   0.98690866     0.98143801     7.3449248     -2738.1917     -4220.035       1481.8434     -4220.035      -5492.5106     -301.96435      1574.4399      5396.7632    
    263000   1.0427624      1.0166323      7.5512652     -2546.9603     -4112.6681      1565.7078     -4112.6681     -5408.9339     -300.43732      1596.7032      5816.5292    
    264000   0.98045009     0.98746792     7.6264266     -2639.2884     -4111.4342      1472.1458     -4111.4342     -5424.651      -302.65715      1615.8739      5807.4469    
    265000   0.97184144     0.98899639     7.3142333     -2763.9886     -4223.2086      1459.2199     -4223.2086     -5501.9302     -303.05859      1581.7802      5336.9735    
    266000   0.99859022     0.99158879     7.4269166     -2659.6292     -4159.0124      1499.3832     -4159.0124     -5442.2503     -301.14917      1584.3871      5566.1366    
    267000   1.0597845      1.0265762      7.7094714     -2568.4601     -4159.7265      1591.2664     -4159.7265     -5491.7193     -301.86457      1633.8573      5970.2525    
    268000   0.9990446      1.0027315      7.0858575     -2730.69       -4230.7554      1500.0655     -4230.7554     -5444.4525     -302.23505      1515.9321      5117.332     
    269000   0.98360466     0.9876557      7.244545      -2714.4832     -4191.3656      1476.8824     -4191.3656     -5446.6511     -298.62676      1553.9122      5309.2949    
    270000   1.018701       1.0105816      7.3698134     -2603.5694     -4133.149       1529.5796     -4133.149      -5395.4788     -299.90347      1562.2333      5558.9511    
    271000   1.0029095      0.9977761      7.7242321     -2642.79       -4148.6586      1505.8686     -4148.6586     -5479.874      -305.99916      1637.2146      5912.271     
    272000   1.0206377      1.0252255      7.5432859     -2645.7721     -4178.2596      1532.4875     -4178.2596     -5479.7639     -303.10858      1604.6128      5708.8799    
    273000   0.99316545     0.9899685      7.1993854     -2746.6197     -4237.8576      1491.2379     -4237.8576     -5489.7879     -299.78708      1551.7174      5227.1414    
    274000   1.0126037      1.0145776      7.5028019     -2664.8024     -4185.2268      1520.4244     -4185.2268     -5480.4986     -300.74096      1596.0128      5645.0109    
    275000   1.0130258      1.0090807      7.5438142     -2680.7179     -4201.7761      1521.0582     -4201.7761     -5502.106      -297.67375      1598.0036      5674.5191    
    276000   1.0198244      0.99213067     7.490755      -2644.6381     -4175.9044      1531.2664     -4175.9044     -5474.7919     -298.87966      1597.7672      5651.8327    
    277000   1.013362       0.99422965     7.073856      -2733.4061     -4254.9691      1521.563      -4254.9691     -5473.6691     -294.82034      1513.5203      5101.3234    
    278000   0.96912997     0.97581456     7.5176018     -2740.2219     -4195.3705      1455.1487     -4195.3705     -5495.6022     -304.24004      1604.4717      5585.9834    
    279000   0.94777879     0.97065147     7.0098192     -2855.3807     -4278.4705      1423.0899     -4278.4705     -5486.6549     -302.072        1510.2564      4908.4241    
    280000   0.99155627     0.9972054      7.5950911     -2618.8685     -4107.6903      1488.8217     -4107.6903     -5412.2472     -301.56581      1606.1228      5793.1609    
    281000   1.0305297      1.0375931      7.4529484     -2609.6482     -4156.9885      1547.3404     -4156.9885     -5421.26       -303.28015      1567.5516      5644.9494    
    282000   0.98707143     0.98664711     7.1198155     -2797.987      -4280.0747      1482.0877     -4280.0747     -5508.4285     -298.69465      1527.0484      5087.6456    
    283000   1.0306816      1.0378138      7.6854472     -2619.4341     -4167.0026      1547.5685     -4167.0026     -5492.1058     -305.01073      1630.114       5892.6702    
    284000   0.9644783      1.0013343      7.4155352     -2736.6545     -4184.8186      1448.1642     -4184.8186     -5464.5375     -300.53443      1580.2533      5476.5058    
    285000   1.0543615      1.0442413      7.32658       -2654.8963     -4238.0201      1583.1238     -4238.0201     -5504.8967     -300.01194      1566.8885      5459.7406    
    286000   0.98776776     0.99158569     7.6095186     -2709.4693     -4192.6026      1483.1333     -4192.6026     -5519.9905     -300.90611      1628.294       5718.5394    
    287000   0.98965534     0.9885267      7.0998846     -2781.963      -4267.9305      1485.9675     -4267.9305     -5499.3993     -302.98917      1534.458       5081.5948    
    288000   1.0187873      1.0083329      7.0676228     -2734.3953     -4264.1044      1529.7091     -4264.1044     -5481.5214     -298.23009      1515.6471      5093.4306    
    289000   1.0024609      0.99207669     7.7113577     -2662.3256     -4167.5207      1505.1951     -4167.5207     -5500.8567     -302.1444       1635.4804      5878.4761    
    290000   0.99649589     1.018758       7.3062939     -2700.8278     -4197.0664      1496.2386     -4197.0664     -5443.6905     -300.72241      1547.3465      5391.341     
    291000   0.96369875     0.98197913     7.804162      -2649.9449     -4096.9386      1446.9937     -4096.9386     -5456.2324     -300.39607      1659.6899      5993.6433    
    292000   0.99014312     1.0183455      7.2198648     -2657.5897     -4144.2896      1486.6999     -4144.2896     -5376.6197     -301.84242      1534.1724      5338.8535    
    293000   0.95486734     0.95714211     7.2861241     -2798.0789     -4231.8122      1433.7333     -4231.8122     -5500.6357     -300.82288      1569.6464      5271.7506    
    294000   1.0287329      1.0127096      7.2966002     -2683.2214     -4227.8638      1544.6424     -4227.8638     -5480.5626     -302.42034      1555.1192      5398.211     
    295000   0.96546639     1.0044896      7.3247543     -2783.0841     -4232.7319      1449.6478     -4232.7319     -5507.4827     -296.80769      1571.5585      5329.5306    
    296000   1.0289444      0.98489847     7.6310927     -2642.0806     -4187.0406      1544.9601     -4187.0406     -5507.4421     -299.45805      1619.8595      5809.8228    
    297000   0.98804788     0.977926       7.3041122     -2655.8456     -4139.3995      1483.5539     -4139.3995     -5387.7672     -300.21532      1548.5829      5433.9068    
    298000   1.0069391      1.0061925      7.0560046     -2753.2105     -4265.1296      1511.9191     -4265.1296     -5483.4232     -295.26108      1513.5547      5061.7474    
    299000   1.019013       1.015634       7.4211163     -2638.2311     -4168.2792      1530.0481     -4168.2792     -5439.6727     -295.71506      1567.1085      5581.1105    
    300000   1.0145976      1.0418721      7.5207596     -2588.9091     -4112.3273      1523.4182     -4112.3273     -5408.734      -296.84285      1593.2495      5740.7936    
    301000   1.0098932      1.0042552      7.1910475     -2747.6714     -4264.026       1516.3546     -4264.026      -5504.6006     -302.7802       1543.3548      5216.855     
    302000   1.0105839      0.99898022     7.2715189     -2681.8122     -4199.204       1517.3918     -4199.204      -5442.029      -299.67765      1542.5027      5371.8411    
    303000   1.0245376      1.0212311      7.3766262     -2659.1165     -4197.4597      1538.3432     -4197.4597     -5484.2249     -297.04903      1583.8141      5510.9496    
    304000   0.99890016     0.9932928      7.6773815     -2666.5645     -4166.4131      1499.8486     -4166.4131     -5499.4452     -300.00661      1633.0386      5836.6065    
    305000   0.97343317     0.9764153      7.028636      -2791.4332     -4253.0431      1461.6099     -4253.0431     -5471.5044     -303.24221      1521.7035      4993.2124    
    306000   0.94855133     0.96996823     7.3648537     -2771.0014     -4195.2512      1424.2498     -4195.2512     -5482.5465     -299.83996      1587.1352      5386.0259    
    307000   0.97089232     0.99107984     7.5669772     -2679.6315     -4137.4263      1457.7948     -4137.4263     -5444.6367     -302.62844      1609.8388      5701.26      
    308000   0.99117114     0.97762786     7.7783435     -2669.6922     -4157.9357      1488.2435     -4157.9357     -5512.3341     -301.61577      1656.0142      5945.3005    
    309000   1.0251955      1.0085096      7.7603343     -2604.887      -4144.2181      1539.3311     -4144.2181     -5488.6719     -301.03523      1645.4891      5990.1593    
    310000   0.99300776     0.9845916      7.2997144     -2709.5115     -4200.5127      1491.0012     -4200.5127     -5448.5351     -300.06567      1548.0881      5375.37      
    311000   0.96286915     1.0048254      7.2861278     -2783.0918     -4228.8398      1445.748      -4228.8398     -5485.6844     -299.84236      1556.6869      5286.7417    
    312000   1.0297091      1.0235093      7.2267736     -2671.2634     -4217.3716      1546.1082     -4217.3716     -5456.8719     -299.91026      1539.4106      5332.8318    
    313000   1.0056044      1.0039755      7.7138526     -2695.0607     -4204.9757      1509.915      -4204.9757     -5548.5302     -303.30529      1646.8598      5848.5043    
    314000   1.0031187      1.009173       7.6210324     -2635.7375     -4141.9203      1506.1828     -4141.9203     -5451.5582     -300.03378      1609.6716      5805.0234    
    315000   1.0262735      1.0411084      7.4942764     -2618.4468     -4159.3966      1540.9497     -4159.3966     -5440.7149     -300.79795      1582.1162      5681.9241    
    316000   0.99635224     1.0037228      7.5004523     -2761.0601     -4257.083       1496.0229     -4257.083      -5562.6949     -303.69264      1609.3046      5546.151     
    317000   0.98139575     0.99961514     7.3369504     -2666.3225     -4139.8882      1473.5657     -4139.8882     -5388.7682     -301.09265      1549.9727      5459.8003    
    318000   0.95824578     0.98647395     7.4876179     -2719.843      -4158.6491      1438.806      -4158.6491     -5455.3052     -295.953        1592.6092      5573.1531    
    319000   1.0060568      1.0109472      7.2651785     -2641.9216     -4152.5159      1510.5943     -4152.5159     -5402.4145     -301.03796      1550.9366      5404.7094    
    320000   1.0426044      1.0465775      7.459977      -2560.4005     -4125.871       1565.4704     -4125.871      -5414.6497     -296.21828      1584.997       5701.9817    
    321000   1.0121209      0.99288915     7.6786197     -2640.1562     -4159.8557      1519.6995     -4159.8557     -5476.8133     -302.68689      1619.6445      5864.3862    
    322000   0.96288926     0.97765036     6.7884258     -2842.3047     -4288.083       1445.7782     -4288.083      -5456.8572     -303.31114      1472.0854      4676.2934    
    323000   1.0488171      1.0264083      7.1346943     -2680.4269     -4255.2258      1574.7989     -4255.2258     -5476.1675     -300.91257      1521.8543      5221.6848    
    324000   0.98458869     0.9961625      7.0495565     -2757.7675     -4236.1275      1478.3599     -4236.1275     -5455.8755     -297.92217      1517.6702      5050.0488    
    325000   1.0103703      1.004843       7.6813809     -2600.3078     -4117.3787      1517.071      -4117.3787     -5454.0199     -296.37008      1633.0112      5907.2928    
    326000   0.99971048     1.0101195      7.4012566     -2698.7113     -4199.7766      1501.0653     -4199.7766     -5498.2843     -301.74284      1600.2505      5498.6344    
    327000   0.98888023     0.97847183     7.558281      -2663.5688     -4148.3724      1484.8037     -4148.3724     -5459.5119     -297.69104      1608.8305      5707.6912    
    328000   0.99607905     0.98877873     7.4088096     -2719.484      -4215.0967      1495.6127     -4215.0967     -5493.6912     -298.84011      1577.4346      5486.2271    
    329000   1.0104878      1.0000832      7.2733132     -2710.6188     -4227.8662      1517.2474     -4227.8662     -5475.7014     -299.36094      1547.1961      5345.0218    
    330000   1.0111364      1.0211289      7.4815596     -2619.4242     -4137.6455      1518.2213     -4137.6455     -5429.5518     -300.96824      1592.8745      5666.8621    
    331000   0.9637776      0.97061919     7.3060005     -2747.2076     -4194.3197      1447.1121     -4194.3197     -5458.3145     -303.0226       1567.0174      5344.6361    
    332000   1.0162093      1.0057374      7.1458605     -2736.6685     -4262.5068      1525.8383     -4262.5068     -5488.9096     -302.7891       1529.1919      5177.8104    
    333000   0.97309326     0.9756951      7.6418933     -2678.6642     -4139.7637      1461.0995     -4139.7637     -5471.339      -300.60992      1632.1852      5785.2015    
    334000   0.98230388     0.99573619     7.3109785     -2698.3239     -4173.2532      1474.9293     -4173.2532     -5433.1058     -301.45999      1561.3125      5399.0333    
    335000   1.0092279      1.0106911      7.4572664     -2627.9615     -4143.3172      1515.3557     -4143.3172     -5418.2452     -304.08704      1579.015       5631.4186    
    336000   0.91824086     0.95067067     6.8819179     -2899.6501     -4278.3888      1378.7387     -4278.3888     -5480.995      -300.25751      1502.8638      4722.4962    
    337000   1.0324602      1.0262379      7.4743779     -2522.1279     -4072.3669      1550.239      -4072.3669     -5342.9152     -298.64085      1569.1892      5756.2041    
    338000   0.99051275     0.98752579     7.3110028     -2697.1348     -4184.3897      1487.2549     -4184.3897     -5428.1091     -302.27878      1545.9981      5400.2493    
    339000   0.97225484     0.98470555     7.3920726     -2743.8677     -4203.7084      1459.8406     -4203.7084     -5476.4552     -300.82291      1573.5697      5443.3062    
    340000   1.0300687      1.0021453      7.4158502     -2666.2315     -4212.8796      1546.6482     -4212.8796     -5490.894      -298.40895      1576.4233      5547.2777    
    341000   1.0045154      0.99162167     7.4693808     -2612.2286     -4120.5084      1508.2798     -4120.5084     -5406.8544     -297.50461      1583.8505      5660.5689    
    342000   0.97281986     0.96298162     7.3891795     -2723.0965     -4183.7855      1460.689      -4183.7855     -5475.4963     -295.60085      1587.3116      5460.8732    
    343000   1.0272937      1.0227202      7.4302401     -2660.8642     -4203.3457      1542.4816     -4203.3457     -5486.0422     -300.51653      1583.2131      5568.5826    
    344000   0.98494146     0.9901923      7.5739277     -2636.3379     -4115.2275      1478.8896     -4115.2275     -5421.4206     -302.91295      1609.1061      5752.2517    
    345000   1.0293694      1.0071947      7.6259044     -2577.8855     -4123.4836      1545.5981     -4123.4836     -5451.7899     -303.0842       1631.3905      5868.2715    
    346000   0.95616944     0.97289619     7.7487076     -2638.1291     -4073.8175      1435.6884     -4073.8175     -5409.5844     -297.00552      1632.7724      5944.04      
    347000   0.98412736     1.0009863      7.5348567     -2722.4908     -4200.1581      1477.6672     -4200.1581     -5516.8372     -297.14612      1613.8253      5622.8253    
    348000   1.0082222      1.0107777      7.4155591     -2698.5785     -4212.4241      1513.8457     -4212.4241     -5495.0439     -302.55686      1585.1766      5514.6083    
    349000   1.0040315      0.99305135     7.0450913     -2679.8657     -4187.4189      1507.5532     -4187.4189     -5379.3489     -302.08155      1494.0115      5123.0052    
    350000   0.9561677      0.97787945     7.526531      -2697.0396     -4132.7254      1435.6858     -4132.7254     -5445.9261     -301.44343      1614.6442      5639.0553    
    351000   1.0302744      1.0299269      7.3738153     -2618.2224     -4165.1793      1546.957      -4165.1793     -5424.8823     -303.3477       1563.0506      5548.7305    
    352000   0.97708309     0.98513949     7.7920483     -2658.5205     -4125.6108      1467.0903     -4125.6108     -5496.3732     -299.13452      1669.8969      5971.651     
    353000   1.0396254      1.023488       7.1048476     -2674.073      -4235.0706      1560.9976     -4235.0706     -5458.6624     -303.94428      1527.5361      5194.9816    
    354000   1.0587209      1.0417138      7.8012431     -2563.4307     -4153.1001      1589.6694     -4153.1001     -5496.8383     -296.3893       1640.1275      6076.9247    
    355000   1.0106213      1.0003518      7.3872416     -2669.1093     -4186.5573      1517.4479     -4186.5573     -5443.4861     -302.06997      1558.9988      5512.7139    
    356000   1.0410841      1.026573       7.1537281     -2670.2702     -4233.4581      1563.1878     -4233.4581     -5461.0391     -301.17621      1528.7573      5252.9226    
    357000   0.99437313     0.99511466     7.2255811     -2742.0383     -4235.0896      1493.0513     -4235.0896     -5488.6713     -298.41846      1552.0002      5260.7361    
    358000   1.0345679      0.99904548     7.5242586     -2647.1394     -4200.543       1553.4036     -4200.543      -5493.6577     -301.91684      1595.0315      5686.4386    
    359000   1.0459882      1.0267333      7.0910895     -2686.7977     -4257.3489      1570.5513     -4257.3489     -5471.8642     -299.23089      1513.7462      5167.0191    
    360000   0.96225353     0.9802414      7.6156576     -2743.9432     -4188.7669      1444.8237     -4188.7669     -5519.1648     -301.01282      1631.4108      5690.8648    
    361000   1.0372256      1.0172222      7.3387416     -2622.1748     -4179.5691      1557.3942     -4179.5691     -5433.828      -301.9242       1556.1831      5505.9318    
    362000   0.99189559     0.97568147     7.1852514     -2726.1319     -4215.4632      1489.3312     -4215.4632     -5445.6474     -302.75443      1532.9387      5231.9748    
    363000   1.0153138      1.0053425      7.37843       -2670.8166     -4195.3102      1524.4936     -4195.3102     -5447.9086     -300.2317       1552.8301      5501.2474    
    364000   1.0038814      0.9945812      7.3122235     -2702.5652     -4209.8932      1507.328      -4209.8932     -5468.7745     -301.36129      1560.2426      5396.171     
    365000   0.98500004     0.97191191     7.4846628     -2789.1212     -4268.0987      1478.9776     -4268.0987     -5576.5828     -301.73375      1610.2178      5500.6021    
    366000   0.99748733     0.99937707     7.2499143     -2706.253      -4203.9802      1497.7272     -4203.9802     -5449.7162     -301.34789      1547.0839      5323.472     
    367000   0.99344855     1.001424       7.506056      -2695.4581     -4187.1211      1491.663      -4187.1211     -5486.536      -298.18059      1597.5955      5617.9594    
    368000   1.0358983      1.0140079      7.3162776     -2665.9443     -4221.3456      1555.4013     -4221.3456     -5476.2341     -302.77951      1557.668       5437.2821    
    369000   0.96624218     0.96718129     7.5683689     -2724.3109     -4175.1235      1450.8126     -4175.1235     -5493.2623     -302.63509      1620.7739      5658.1221    
    370000   0.98031902     0.96945904     7.1721895     -2740.4869     -4212.4359      1471.949      -4212.4359     -5448.8122     -298.64059      1535.0169      5203.153     
    371000   0.97047827     0.99779379     7.3030342     -2773.9059     -4231.079       1457.1731     -4231.079      -5510.1852     -302.46396      1581.5702      5314.6526    
    372000   0.9561665      0.97937783     7.3807041     -2782.1805     -4217.8645      1435.684      -4217.8645     -5498.9413     -303.76364      1584.8404      5392.4021    
    373000   0.97063698     0.99487619     7.5116894     -2746.2659     -4203.6773      1457.4114     -4203.6773     -5510.7041     -302.61558      1609.6423      5573.391     
    374000   0.97743937     0.99787109     7.268114      -2732.5353     -4200.1605      1467.6252     -4200.1605     -5454.3067     -300.54653      1554.6927      5317.3468    
    375000   1.0127992      1.0051366      7.5488986     -2573.9021     -4094.62        1520.718      -4094.62       -5384.9704     -300.04103      1590.3914      5786.9663    
    376000   0.95165565     0.98405514     7.1576028     -2754.5917     -4183.5027      1428.911      -4183.5027     -5405.9949     -301.40998      1523.9022      5172.8925    
    377000   0.98250008     0.98383225     6.8605096     -2818.9403     -4294.1641      1475.2239     -4294.1641     -5486.8116     -299.49444      1492.1419      4779.495     
    378000   1.0162585      1.033411       7.6435758     -2653.7266     -4179.6387      1525.9121     -4179.6387     -5512.1305     -299.82975      1632.3216      5812.0026    
    379000   0.97706838     0.99843305     7.5828625     -2658.1804     -4125.2486      1467.0682     -4125.2486     -5416.9683     -298.315        1590.0347      5740.3051    
    380000   0.999673       1.0035928      7.4261418     -2638.6567     -4139.6657      1501.009      -4139.6657     -5416.5015     -302.49746      1579.3332      5586.2509    
    381000   0.99607224     1.0055545      7.3159391     -2750.7722     -4246.3747      1495.6025     -4246.3747     -5513.6857     -301.28542      1568.5965      5352.0792    
    382000   1.0260717      1.0067997      7.021521      -2723.2566     -4263.9032      1540.6466     -4263.9032     -5463.8619     -301.42914      1501.3878      5053.5087    
    383000   1.0367126      1.0165529      7.4052408     -2668.6424     -4225.2664      1556.624      -4225.2664     -5512.51       -296.46101      1583.7047      5533.1162    
    384000   1.0614561      1.0355064      7.2102675     -2725.7196     -4319.496       1593.7763     -4319.496      -5552.9826     -304.00031      1537.487       5260.0941    
    385000   0.99703056     1.0174505      7.3187157     -2734.5121     -4231.5535      1497.0414     -4231.5535     -5491.7589     -307.48776      1567.6931      5371.4145    
    386000   1.022067       0.99841753     7.4985331     -2637.7914     -4172.425       1534.6336     -4172.425      -5468.3812     -299.65979      1595.616       5667.2941    
    387000   1.0417253      1.0198118      7.504866      -2633.8169     -4197.9675      1564.1506     -4197.9675     -5495.9655     -301.76049      1599.7585      5678.2827    
    388000   1.0099306      0.99351558     7.3644109     -2698.5976     -4215.0083      1516.4107     -4215.0083     -5480.4116     -300.32134      1565.7246      5457.9394    
    389000   0.97963412     0.97836029     7.5690536     -2727.6448     -4198.5654      1470.9206     -4198.5654     -5512.8354     -299.81693      1614.0869      5655.5465    
    390000   0.96041493     0.97369494     7.2539732     -2786.4596     -4228.5226      1442.063      -4228.5226     -5486.7528     -302.22462      1560.4548      5247.7608    
    391000   0.97915009     1.003544       7.185049      -2719.0109     -4189.2047      1470.1939     -4189.2047     -5418.2455     -297.65766      1526.6985      5238.8717    
    392000   1.0007122      0.99261693     7.6737663     -2658.6333     -4161.2026      1502.5693     -4161.2026     -5490.807      -300.12562      1629.73        5840.5336    
    393000   1.0234023      1.004542       7.5771366     -2669.41       -4206.0485      1536.6385     -4206.0485     -5520.006      -301.37017      1615.3277      5722.7337    
    394000   1.017419       1.0173523      7.1511978     -2671.695      -4199.3496      1527.6546     -4199.3496     -5429.6602     -301.65191      1531.9625      5248.6953    
    395000   0.96843608     0.95161932     7.3565158     -2782.1418     -4236.2485      1454.1068     -4236.2485     -5503.0734     -299.76725      1566.5921      5365.6509    
    396000   0.97863516     0.97479964     7.1323664     -2758.3437     -4227.7644      1469.4207     -4227.7644     -5457.4259     -298.77646      1528.4379      5141.1897    
    397000   0.99009272     1.0111946      7.6978435     -2680.9215     -4167.5457      1486.6242     -4167.5457     -5510.6216     -300.9494       1644.0253      5844.9124    
    398000   0.9904402      1.0011262      7.8332409     -2646.77       -4133.9159      1487.146      -4133.9159     -5483.9245     -303.81355      1653.8221      6029.025     
    399000   0.97396797     0.98080503     7.3349171     -2762.4285     -4224.8414      1462.4129     -4224.8414     -5504.9199     -303.54655      1583.6251      5361.4423    
    400000   1.0230674      0.99267394     7.340895      -2727.0998     -4263.2354      1536.1356     -4263.2354     -5526.4691     -303.74898      1566.9827      5403.3918    
    401000   1.0206219      1.0268088      7.5160321     -2656.7815     -4189.2453      1532.4638     -4189.2453     -5477.2256     -302.75388      1590.7342      5667.6852    
    402000   1.0305257      1.0030856      7.7276707     -2586.3674     -4133.7017      1547.3343     -4133.7017     -5472.2396     -299.01419      1637.5521      5972.5021    
    403000   1.0158116      1.0041229      7.4559828     -2711.8113     -4237.0524      1525.2411     -4237.0524     -5534.8675     -303.38429      1601.1994      5546.147     
    404000   1.0093216      1.0180505      7.0617087     -2762.3649     -4277.8613      1515.4964     -4277.8613     -5502.1374     -293.98154      1518.2576      5058.9108    
    405000   1.0459615      1.0248106      7.2528947     -2671.3854     -4241.8965      1570.5111     -4241.8965     -5483.4878     -303.57086      1545.1621      5361.6404    
    406000   1.0319241      1.0000862      7.4216303     -2632.1009     -4181.535       1549.4341     -4181.535      -5438.3852     -298.13472      1554.9849      5587.81      
    407000   1.05584        1.043609       7.2399851     -2661.1017     -4246.4455      1585.3437     -4246.4455     -5492.3055     -302.94342      1548.8034      5357.626     
    408000   1.027655       1.016889       7.6498076     -2606.3281     -4149.3521      1543.024      -4149.3521     -5464.5735     -303.47987      1618.7012      5866.3032    
    409000   1.0504847      1.0537756      7.2934106     -2632.9449     -4210.2476      1577.3027     -4210.2476     -5445.7044     -305.85973      1541.3165      5444.9549    
    410000   0.98120798     0.98125958     7.5820746     -2670.4973     -4143.7811      1473.2838     -4143.7811     -5464.369      -299.00651      1619.5944      5727.1154    
    411000   1.0325045      1.0073105      7.3615547     -2651.6623     -4201.9678      1550.3055     -4201.9678     -5465.3355     -299.78833      1563.156       5501.7112    
    412000   1.0630722      1.0239364      7.4750742     -2549.3048     -4145.5078      1596.2029     -4145.5078     -5423.4813     -301.56039      1579.5339      5729.7985    
    413000   0.99369981     0.983977       7.3146257     -2666.3619     -4158.4021      1492.0403     -4158.4021     -5413.5105     -302.1001       1557.2084      5435.0348    
    414000   0.9868562      0.99138874     7.6521721     -2689.3168     -4171.0814      1481.7646     -4171.0814     -5491.5302     -301.19482      1621.6436      5785.9333    
    415000   1.0258433      1.0141147      7.6267496     -2619.9196     -4160.2233      1540.3037     -4160.2233     -5476.2068     -299.01646      1615           5827.1735    
    416000   1.0111957      1.0147538      7.51039       -2634.713      -4153.0233      1518.3103     -4153.0233     -5447.6324     -301.68532      1596.2944      5683.5048    
    417000   0.95761304     0.9745592      7.5965652     -2720.0145     -4157.8705      1437.856      -4157.8705     -5470.9001     -302.21349      1615.2431      5693.6476    
    418000   1.039662       1.0274537      7.3331304     -2682.298      -4243.3505      1561.0525     -4243.3505     -5513.2783     -299.83105      1569.7588      5439.5937    
    419000   1.0435952      1.0122293      7.0710584     -2721.6327     -4288.591       1566.9582     -4288.591      -5494.4124     -297.98288      1503.8043      5109.9982    
    420000   0.9820529      0.98524056     7.6414325     -2701.6171     -4176.1695      1474.5524     -4176.1695     -5509.0296     -295.03473      1627.8948      5761.7383    
    421000   0.97685592     1.0212914      7.0080911     -2809.1806     -4275.9298      1466.7492     -4275.9298     -5483.6755     -299.49149      1507.2372      4952.7103    
    422000   0.98551731     1.0131529      7.1539317     -2782.9749     -4262.7292      1479.7542     -4262.7292     -5498.9179     -299.99319      1536.1819      5140.4434    
    423000   1.0170331      1.0219055      7.476993      -2629.3907     -4156.466       1527.0752     -4156.466      -5444.0226     -297.22369      1584.7803      5651.8377    
    424000   0.98843448     0.98681889     7.5659677     -2704.5081     -4188.6425      1484.1344     -4188.6425     -5500.3988     -300.77277      1612.5291      5675.2653    
    425000   0.9681587      0.99451082     7.2334605     -2731.6891     -4185.3794      1453.6903     -4185.3794     -5434.1035     -300.24149      1548.9656      5279.8122    
    426000   0.96161107     0.9623797      7.2457454     -2790.9354     -4234.7944      1443.859      -4234.7944     -5489.6351     -301.99665      1556.8374      5234.1722    
    427000   1.0404757      1.0296588      7.6899171     -2633.9594     -4196.2337      1562.2743     -4196.2337     -5526.5218     -298.91571      1629.2038      5883.0956    
    428000   0.95837835     1.0049989      7.2683096     -2829.1018     -4268.1069      1439.0051     -4268.1069     -5550.4831     -299.36392      1581.7402      5220.9971    
    429000   1.0027202      0.9811541      7.281806      -2736.8309     -4242.4153      1505.5844     -4242.4153     -5502.454      -300.61995      1560.6587      5328.2161    
    430000   1.0368286      1.0192489      7.3901755     -2644.8773     -4201.6755      1556.7982     -4201.6755     -5466.1212     -303.15767      1567.6033      5540.1954    
    431000   1.0323841      1.0586161      7.4252858     -2687.1809     -4237.3056      1550.1247     -4237.3056     -5513.1792     -299.92471      1575.7983      5536.7786    
    432000   1.0060822      0.99315659     7.3955711     -2695.9541     -4206.5866      1510.6325     -4206.5866     -5491.5872     -299.1587       1584.1593      5495.0946    
    433000   1.0220496      0.99550087     7.6000849     -2678.5577     -4213.1652      1534.6074     -4213.1652     -5531.1592     -300.91724      1618.9113      5739.0026    
    434000   0.9517167      0.99319903     7.2043286     -2784.458      -4213.4606      1429.0026     -4213.4606     -5454.1759     -297.46264      1538.178       5194.778     
    435000   1.0367108      1.0179604      7.4108869     -2654.964      -4211.5853      1556.6213     -4211.5853     -5474.8996     -302.77555      1566.0898      5553.0479    
    436000   0.96545355     0.96795979     7.1198015     -2817.3485     -4266.977       1449.6285     -4266.977      -5496.0375     -301.02817      1530.0887      5068.2685    
    437000   0.9979565      1.0099194      7.3077308     -2666.1334     -4164.5651      1498.4317     -4164.5651     -5408.2987     -299.84886      1543.5825      5427.6268    
    438000   1.0181865      1.0145307      7.5011525     -2675.5285     -4204.3355      1528.807      -4204.3355     -5490.8347     -305.10039      1591.5996      5632.4582    
    439000   0.98430268     0.99299986     7.5130639     -2683.524      -4161.4544      1477.9305     -4161.4544     -5463.8209     -296.14949      1598.516       5637.6552    
    440000   1.0481267      1.0348496      7.5093763     -2592.9516     -4166.7138      1573.7622     -4166.7138     -5443.1463     -301.73939      1578.1719      5724.1435    
    441000   0.99112423     0.97868742     7.5949588     -2681.8425     -4170.0155      1488.173      -4170.0155     -5483.4724     -302.90381      1616.3608      5730.0404    
    442000   1.0230096      1.020913       7.4650033     -2618.8461     -4154.8949      1536.0489     -4154.8949     -5432.2738     -299.54707      1576.9259      5649.1031    
    443000   0.9996725      0.99978269     7.486113      -2706.4165     -4207.4248      1501.0083     -4207.4248     -5500.0852     -303.45659      1596.117       5584.913     
    444000   1.0050664      0.98950196     7.4231924     -2751.4463     -4260.5535      1509.1072     -4260.5535     -5553.3258     -297.85297      1590.6253      5470.1947    
    445000   1.0230686      1.0196476      7.2670097     -2700.887      -4237.0245      1536.1376     -4237.0245     -5493.1956     -299.36581      1555.5369      5347.7721    
    446000   1.0245642      1.002405       7.3590135     -2616.6535     -4155.0366      1538.3831     -4155.0366     -5418.1574     -301.06993      1564.1907      5533.9054    
    447000   0.95946563     0.96262931     7.2554442     -2701.2459     -4141.8836      1440.6376     -4141.8836     -5398.352      -296.18722      1552.6557      5334.6037    
    448000   1.0114773      1.0127144      7.5449327     -2653.2408     -4171.9739      1518.7331     -4171.9739     -5468.0505     -300.95971      1597.0364      5703.2351    
    449000   0.99658691     0.99719236     7.3383793     -2707.9227     -4204.2979      1496.3752     -4204.2979     -5468.9768     -301.63939      1566.3182      5419.7827    
    450000   0.98895616     0.98415515     7.2055841     -2781.9287     -4266.8464      1484.9177     -4266.8464     -5526.2541     -297.01737      1556.425       5198.6977    
    451000   1.0489006      1.0490638      7.5633514     -2562.1344     -4137.0586      1574.9242     -4137.0586     -5432.0783     -297.04069      1592.0603      5814.7414    
    452000   1.0212778      0.9906875      7.5523676     -2615.4227     -4148.8713      1533.4486     -4148.8713     -5450.1121     -297.40879      1598.6496      5749.2878    
    453000   1.0215875      1.0240256      7.5915443     -2676.1381     -4210.0517      1533.9136     -4210.0517     -5521.7137     -301.1817       1612.8437      5731.9629    
    454000   1.0218104      1.0288139      7.2838575     -2626.4913     -4160.7397      1534.2483     -4160.7397     -5404.6573     -300.3641       1544.2817      5440.8278    
    455000   1.0556482      1.0479778      7.4607237     -2612.4387     -4197.4944      1585.0558     -4197.4944     -5483.4546     -304.87331      1590.8335      5650.7705    
    456000   1.0081559      0.99671515     7.4974684     -2683.0745     -4196.8205      1513.7461     -4196.8205     -5486.6162     -300.33555      1590.1312      5620.8317    
    457000   0.99102886     0.98873581     7.4818662     -2592.948      -4080.9778      1488.0298     -4080.9778     -5370.9191     -298.98197      1588.9233      5693.6779    
    458000   1.0306291      1.0377827      7.3620051     -2589.0608     -4136.5504      1547.4896     -4136.5504     -5396.0973     -297.24502      1556.7919      5564.8115    
    459000   1.0054672      1.0171786      7.3213224     -2673.5721     -4183.2811      1509.709      -4183.2811     -5442.2099     -300.32892      1559.2578      5435.2417    
    460000   1.0520932      1.042571       7.2394708     -2645.0044     -4224.7223      1579.7179     -4224.7223     -5463.0043     -294.11674      1532.3987      5373.1537    
    461000   1.0492958      1.0033332      7.6341617     -2604.6034     -4180.1211      1575.5177     -4180.1211     -5499.4538     -301.60301      1620.9357      5850.699     
    462000   0.94443169     0.97545135     7.2478577     -2766.2295     -4184.2937      1418.0642     -4184.2937     -5445.6167     -299.01033      1560.3334      5261.2176    
    463000   1.0121716      0.99026997     7.6776526     -2596.5699     -4116.3456      1519.7757     -4116.3456     -5446.7481     -298.62005      1629.0226      5906.9014    
    464000   1.0146566      1.020226       7.3000069     -2692.7619     -4216.2687      1523.5069     -4216.2687     -5484.3758     -298.51094      1566.618       5392.4436    
    465000   1.0168479      0.99797618     7.3735847     -2700.1366     -4226.9337      1526.7972     -4226.9337     -5503.8454     -301.77838      1578.69        5466.5609    
    466000   1.0399784      1.0458369      7.1825065     -2569.5016     -4131.0291      1561.5275     -4131.0291     -5352.8566     -297.99679      1519.8243      5385.565     
    467000   1.0179072      1.0115204      7.0993868     -2731.8013     -4260.189       1528.3877     -4260.189      -5475.5164     -299.74414      1515.0715      5131.2051    
    468000   1.0147387      0.99959036     7.581383      -2639.6499     -4163.28        1523.6301     -4163.28       -5467.736      -297.84104      1602.2971      5757.1969    
    469000   1.0321907      0.99937208     7.3997479     -2619.8743     -4169.7086      1549.8343     -4169.7086     -5440.3472     -297.26234      1567.901       5575.8004    
    470000   1.0668856      1.0275609      7.486577      -2626.2607     -4228.1895      1601.9288     -4228.1895     -5518.7129     -301.71525      1592.2387      5665.5827    
    471000   0.99971502     1.0081609      7.3440205     -2707.2204     -4208.2925      1501.0721     -4208.2925     -5472.3949     -305.16669      1569.2691      5426.7329    
    472000   1.0140251      1.0196178      7.4534719     -2662.5318     -4185.0905      1522.5587     -4185.0905     -5484.0978     -305.64578      1604.653       5592.6456    
    473000   1.0390896      1.0120341      7.2710449     -2638.9241     -4199.1172      1560.1931     -4199.1172     -5439.748      -300.70605      1541.3369      5414.2042    
    474000   0.97365537     0.96793176     7.0268966     -2811.4393     -4273.3828      1461.9435     -4273.3828     -5484.332      -299.39934      1510.3484      4971.2798    
    475000   0.92263552     0.9502981      7.1752508     -2854.9063     -4240.2435      1385.3372     -4240.2435     -5483.0643     -300.77252      1543.5933      5092.1242    
    476000   0.95905299     0.99829927     7.2314782     -2770.142      -4210.1601      1440.0181     -4210.1601     -5471.3739     -302.63217      1563.8459      5239.1638    
    477000   0.98479347     0.99413513     7.1040354     -2705.3601     -4184.0275      1478.6674     -4184.0275     -5393.2966     -302.17688      1511.4459      5162.7949    
    478000   1.0231839      1.0103137      7.7211505     -2641.5315     -4177.8421      1536.3106     -4177.8421     -5511.4823     -304.00393      1637.6441      5910.1164    
    479000   1.0521721      1.0416379      7.3239329     -2559.8154     -4139.6518      1579.8364     -4139.6518     -5385.4837     -299.85389      1545.6858      5551.8897    
    480000   0.99839309     0.97333783     7.355151      -2730.9978     -4230.0851      1499.0872     -4230.0851     -5497.9657     -300.36067      1568.2413      5415.2832    
    481000   1.0353802      0.98227855     7.5554042     -2579.2911     -4133.9145      1554.6234     -4133.9145     -5432.7478     -304.36471      1603.198       5788.7826    
    482000   0.96905638     0.9929483      7.2065423     -2803.4089     -4258.4471      1455.0382     -4258.4471     -5508.204      -300.63125      1550.3882      5178.2788    
    483000   1.0135576      0.99336716     7.8390483     -2617.9155     -4139.7722      1521.8567     -4139.7722     -5503.9402     -301.64953      1665.8175      6064.3114    
    484000   1.0098935      1.0021491      7.4724123     -2601.3018     -4117.657       1516.3551     -4117.657      -5398.4603     -298.66483      1579.4681      5674.8533    
    485000   1.0123623      0.99260624     7.7350345     -2523.1413     -4043.2033      1520.0621     -4043.2033     -5363.814      -299.75774      1620.3684      6043.884     
    486000   0.99550512     0.96962814     7.4755852     -2742.4318     -4237.1827      1494.7509     -4237.1827     -5538.898      -301.58242      1603.2977      5537.2374    
    487000   1.0065623      0.99373043     7.6215684     -2647.2807     -4158.634       1511.3533     -4158.634      -5479.9266     -298.80061      1620.0931      5794.0739    
    488000   1.0464723      1.0383581      7.3852381     -2620.8411     -4192.1193      1571.2782     -4192.1193     -5464.3581     -302.92665      1575.1655      5558.7632    
    489000   1.0237955      1.0127868      7.2425883     -2672.7095     -4209.9384      1537.2289     -4209.9384     -5451.3979     -303.48331      1544.9428      5348.9014    
    490000   1.0018012      1.0010783      7.2930745     -2640.8997     -4145.1043      1504.2045     -4145.1043     -5392.0279     -300.80164      1547.7252      5436.6277    
    491000   0.95277954     0.96686349     7.4973384     -2777.8296     -4208.4281      1430.5985     -4208.4281     -5525.9091     -298.94638      1616.4274      5525.9326    
    492000   0.98825342     0.97499288     7.3800419     -2640.0219     -4123.8844      1483.8625     -4123.8844     -5379.2075     -300.86482      1556.1879      5533.8274    
    493000   1.009872       1.0228161      7.6366351     -2712.7337     -4229.0565      1516.3228     -4229.0565     -5565.646      -300.53988      1637.1293      5745.3081    
    494000   0.98823186     0.99107303     7.2420396     -2733.1819     -4217.012       1483.8301     -4217.012      -5468.4626     -297.28496      1548.7355      5287.8213    
    495000   1.0134593      0.99041538     7.6418874     -2608.6562     -4130.3653      1521.7091     -4130.3653     -5445.9441     -298.78561      1614.3644      5855.2029    
    496000   1.0516732      1.0321045      7.4532835     -2607.2559     -4186.3432      1579.0873     -4186.3432     -5462.5518     -304.61705      1580.8256      5647.7128    
    497000   0.96140264     0.99587943     7.0319412     -2829.558      -4273.104       1443.5461     -4273.104      -5494.8715     -305.05276      1526.8203      4958.7484    
    498000   0.98835853     0.99283052     7.5241698     -2689.8102     -4173.8306      1484.0203     -4173.8306     -5473.6535     -299.1408       1598.9637      5643.6695    
    499000   0.98329006     1.0048294      7.6147497     -2666.8009     -4143.211       1476.41       -4143.211      -5453.3434     -302.36973      1612.5022      5767.0015    
    500000   0.95713937     0.95162493     7.1891285     -2772.8845     -4210.0293      1437.1448     -4210.0293     -5447.8455     -302.4631       1540.2794      5189.5163    
colvars: Saving collective variables state to "prod.colvars.state".
Loop time of 5738.49 on 1 procs for 500000 steps with 1002 atoms

Performance: 37640.545 tau/day, 87.131 timesteps/s
100.0% CPU use with 1 MPI tasks x 1 OpenMP threads

MPI task timing breakdown:
Section |  min time  |  avg time  |  max time  |%varavg| %total
---------------------------------------------------------------
Pair    | 26.194     | 26.194     | 26.194     |   0.0 |  0.46
Kspace  | 5611.3     | 5611.3     | 5611.3     |   0.0 | 97.78
Neigh   | 0.06457    | 0.06457    | 0.06457    |   0.0 |  0.00
Comm    | 54.62      | 54.62      | 54.62      |   0.0 |  0.95
Output  | 0.06663    | 0.06663    | 0.06663    |   0.0 |  0.00
Modify  | 41.443     | 41.443     | 41.443     |   0.0 |  0.72
Other   |            | 4.76       |            |       |  0.08

Nlocal:           1002 ave        1002 max        1002 min
Histogram: 1 0 0 0 0 0 0 0 0 0
Nghost:           7732 ave        7732 max        7732 min
Histogram: 1 0 0 0 0 0 0 0 0 0
Neighs:              0 ave           0 max           0 min
Histogram: 1 0 0 0 0 0 0 0 0 0

Total # of neighbors = 0
Ave neighs/atom = 0
Neighbor list builds = 47072
Dangerous builds = 0

undump         1
unfix          1
unfix          2
unfix          3
Total wall time: 3:30:34
