LAMMPS (3 Aug 2022)
#=======================================
# Sodium-Chloride in Stockmayer Fluid (water dipole)
#   Created by Chris Balzer (balzer@caltech.edu)
#   See README.md for description
#==================================

#======
# Parameters
#======
# Initialize the system set up
units		      lj
boundary	    p p p
atom_style	  hybrid dipole sphere
WARNING: Atom style hybrid defines both, per-type and per-atom masses; both must be set, but only per-atom masses will be used (../atom_vec_hybrid.cpp:133)
atom_modify   map yes

# Read in input data
read_data	    system.data
Reading data file ...
  orthogonal box = (0 0 0) to (10.3464 10.3464 10.3464)
  1 by 1 by 1 MPI processor grid
  reading atoms ...
  1002 atoms
  read_data CPU = 0.002 seconds

# Group atoms
group         solvent  type 1
1000 atoms in group solvent
group         ions     type 2 3
2 atoms in group ions
group         anion    type 2
1 atoms in group anion
group         cation   type 3
1 atoms in group cation
group2ndx     groups.ndx cation anion
Writing groups to index file groups.ndx:
 writing group cation...done
 writing group anion...done

# Set mass and diameter of spheres
set type      1 mass 1.0 # solvent
Setting atom values ...
  1000 settings made for mass
set type      2 mass 3.9411 # anion
Setting atom values ...
  1 settings made for mass
set type      3 mass 1.2767 # cation
Setting atom values ...
  1 settings made for mass
set type      1 diameter 1.0 # solvent
Setting atom values ...
  1000 settings made for diameter
set type      2 diameter 1.2067 # anion
Setting atom values ...
  1 settings made for diameter
set type      3 diameter 0.6533 # cation
Setting atom values ...
  1 settings made for diameter

# Set charge of ions
set type      2 charge -13.626 # anion
Setting atom values ...
  1 settings made for charge
set type      3 charge  13.626 # cation
Setting atom values ...
  1 settings made for charge

# Non-bonded interactions
pair_style	  lj/cut/dipole/long 1.12246204831 5.06974
pair_coeff	  1 1 1.0 1.0 1.122462 # solvent
pair_coeff	  2 2 1.0 1.2067 1.354438 # anion
pair_coeff	  3 3 1.0 0.6533 0.733342 # cation
kspace_style  ewald/disp 1e-4
pair_modify   shift yes mix geometric

# Set dipole
set group solvent dipole/random 4321 1.7494
Setting atom values ...
  1000 settings made for dipole/random

# Neighbor settings
neighbor	    0.4 bin
neigh_modify every 1 delay 0 one 10000

# Temperature computation
compute tempSph all  temp/sphere

#####################################################
# Minimization
minimize 0.0 1.0e-8 100000 100000

CITE-CITE-CITE-CITE-CITE-CITE-CITE-CITE-CITE-CITE-CITE-CITE-CITE

Your simulation uses code contributions which should be cited:

- GPU package (short-range, long-range and three-body potentials):

@Article{Brown11,
 author = {W. M. Brown, P. Wang, S. J. Plimpton, A. N. Tharrington},
 title = {Implementing Molecular Dynamics on Hybrid High Performance Computers - Short Range Forces},
 journal = {Comp.~Phys.~Comm.},
 year =    2011,
 volume =  182,
 pages =   {898--911}
}

@Article{Brown12,
 author = {W. M. Brown, A. Kohlmeyer, S. J. Plimpton, A. N. Tharrington},
 title = {Implementing Molecular Dynamics on Hybrid High Performance Computers - Particle-Particle Particle-Mesh},
 journal = {Comp.~Phys.~Comm.},
 year =    2012,
 volume =  183,
 pages =   {449--459}
}

@Article{Brown13,
 author = {W. M. Brown, Y. Masako},
 title = {Implementing Molecular Dynamics on Hybrid High Performance Computers â€“ Three-Body Potentials},
 journal = {Comp.~Phys.~Comm.},
 year =    2013,
 volume =  184,
 pages =   {2785--2793}
}

@Article{Trung15,
 author = {T. D. Nguyen, S. J. Plimpton},
 title = {Accelerating dissipative particle dynamics simulations for soft matter systems},
 journal = {Comput.~Mater.~Sci.},
 year =    2015,
 volume =  100,
 pages =   {173--180}
}

@Article{Trung17,
 author = {T. D. Nguyen},
 title = {GPU-accelerated Tersoff potentials for massively parallel Molecular Dynamics simulations},
 journal = {Comp.~Phys.~Comm.},
 year =    2017,
 volume =  212,
 pages =   {113--122}
}

@Article{Nikolskiy19,
 author = {V. Nikolskiy, V. Stegailov},
 title = {GPU acceleration of four-site water models in LAMMPS},
 journal = {Proceeding of the International Conference on Parallel Computing (ParCo 2019), Prague, Czech Republic},
 year =    2019
}

CITE-CITE-CITE-CITE-CITE-CITE-CITE-CITE-CITE-CITE-CITE-CITE-CITE

EwaldDisp initialization ...
Generated 3 of 3 mixed pair_coeff terms from geometric mixing rule
  G vector = 0.55961375,   accuracy = 0.0001
Generated 3 of 3 mixed pair_coeff terms from geometric mixing rule
Neighbor list info ...
  update every 1 steps, delay 0 steps, check yes
  max neighbors/atom: 10000, page size: 100000
  master list distance cutoff = 5.46974
  ghost atom cutoff = 5.46974
  binsize = 2.73487, bins = 4 4 4
  0 neighbor lists, perpetual/occasional/extra = 0 0 0
  vectors: nbox = 7, nkvec = 709
Per MPI rank memory allocation (min/avg/max) = 18.02 | 18.02 | 18.02 Mbytes
   Step          Temp          E_pair         E_mol          TotEng         Press
         0   0              1.2172349      0              1.2172349      11.128454
      1042   0             -5.2979542      0             -5.2979542      2.6383933
Loop time of 25.3985 on 1 procs for 1042 steps with 1002 atoms

100.0% CPU use with 1 MPI tasks x 1 OpenMP threads

Minimization stats:
  Stopping criterion = linesearch alpha is zero
  Energy initial, next-to-last, final =
      1.21723490571729  -5.29795423940057  -5.29795423940057
  Force two-norm initial, final = 1097.5728 26.006834
  Force max component initial, final = 103.93378 13.323729
  Final line search alpha, max atom move = 0.0003174805 0.004230024
  Iterations, force evaluations = 1042 2237

MPI task timing breakdown:
Section |  min time  |  avg time  |  max time  |%varavg| %total
---------------------------------------------------------------
Pair    | 0.11123    | 0.11123    | 0.11123    |   0.0 |  0.44
Kspace  | 25.006     | 25.006     | 25.006     |   0.0 | 98.45
Neigh   | 0.00018848 | 0.00018848 | 0.00018848 |   0.0 |  0.00
Comm    | 0.23777    | 0.23777    | 0.23777    |   0.0 |  0.94
Output  | 0          | 0          | 0          |   0.0 |  0.00
Modify  | 7.4248e-05 | 7.4248e-05 | 7.4248e-05 |   0.0 |  0.00
Other   |            | 0.04324    |            |       |  0.17

Nlocal:           1002 ave        1002 max        1002 min
Histogram: 1 0 0 0 0 0 0 0 0 0
Nghost:           7698 ave        7698 max        7698 min
Histogram: 1 0 0 0 0 0 0 0 0 0
Neighs:              0 ave           0 max           0 min
Histogram: 1 0 0 0 0 0 0 0 0 0

Total # of neighbors = 0
Ave neighs/atom = 0
Neighbor list builds = 140
Dangerous builds = 0
reset_timestep 0

#####################################################
# Initialization (NVT Sphere with spring)

velocity       all create 1.0 4928459
fix		         1 all nve/sphere update dipole
fix            2 all langevin 1.0 1.0 1.0 214323 omega yes
fix            3 ions recenter 0.5 0.5 0.5 units fraction shift all
fix            4 cation spring couple anion 50.0 0.0 0.0 0.0 1.25

thermo		     1000
thermo_style	 custom step temp c_tempSph press etotal pe ke epair ecoul elong evdwl enthalpy
thermo_modify  norm no
dump	       	 1 all custom 10000 dump.dipoleInit id type x y z q mux muy muz

timestep	     0.005
run		         100000
EwaldDisp initialization ...
Generated 3 of 3 mixed pair_coeff terms from geometric mixing rule
  G vector = 0.55961375,   accuracy = 0.0001
Generated 3 of 3 mixed pair_coeff terms from geometric mixing rule
Per MPI rank memory allocation (min/avg/max) = 18.21 | 18.21 | 18.21 Mbytes
   Step          Temp        c_tempSph        Press          TotEng         PotEng         KinEng         E_pair         E_coul         E_long         E_vdwl        Enthalpy
         0   1              0.49975037     3.5421807     -3807.0501     -5308.5501      1501.5        -5308.5501     -5841.8128     -273.69499      806.95766      116.13234
      1000   1.014434       1.0015722      7.5561341     -2684.1371     -4207.3097      1523.1726     -4207.3097     -5514.3951     -303.37868      1610.4641      5684.745
      2000   1.0334781      1.0163401      7.7458259     -2588.2392     -4140.0066      1551.7674     -4140.0066     -5478.711      -303.42687      1642.1313      5990.7382
      3000   0.99654009     1.0116966      7.3863972     -2678.8637     -4175.1687      1496.3049     -4175.1687     -5444.4315     -301.82224      1571.085       5502.0244
      4000   0.97624293     0.97783487     7.6665269     -2623.8908     -4089.7196      1465.8288     -4089.7196     -5410.3443     -298.76632      1619.391       5867.258
      5000   1.020682       1.009244       7.4249322     -2656.3529     -4188.907       1532.5541     -4188.907      -5469.8259     -297.3353       1578.2542      5567.215
      6000   1.0283908      1.0163586      7.1920808     -2736.2623     -4280.3911      1544.1288     -4280.3911     -5523.8192     -303.22868      1546.6568      5229.4085
      7000   0.97701993     0.97762068     7.6285078     -2673.4877     -4140.4831      1466.9954     -4140.4831     -5460.994      -300.75682      1621.2677      5775.5528
      8000   1.0317715      1.0027106      7.0751828     -2763.5604     -4312.7653      1549.2049     -4312.7653     -5526.5209     -297.41602      1511.1716      5072.6387
      9000   1.0330934      1.0326637      7.6165537     -2638.076      -4189.2658      1551.1897     -4189.2658     -5508.7654     -295.57515      1615.0748      5797.7244
     10000   1.0049265      1.0071763      7.2897489     -2686.8909     -4195.788       1508.8972     -4195.788      -5434.2052     -298.32509      1536.7423      5386.9533
     11000   1.0484781      1.0299937      7.3800667     -2614.51       -4188.7999      1574.2898     -4188.7999     -5447.8474     -299.61136      1558.6589      5559.3666
     12000   1.0123256      0.98394173     7.6105035     -2657.0005     -4177.0074      1520.0069     -4177.0074     -5490.7218     -299.03732      1612.7516      5772.0991
     13000   1.0293686      1.0132989      7.3934757     -2663.2891     -4208.886       1545.5969     -4208.886      -5488.6073     -300.67691      1580.3981      5525.4389
     14000   1.0251058      0.99848039     7.0709473     -2675.8683     -4215.0646      1539.1964     -4215.0646     -5428.1938     -296.38667      1509.5158      5155.6397
     15000   0.99048776     0.9846592      7.2399205     -2722.2406     -4209.458       1487.2174     -4209.458      -5448.71       -299.22198      1538.474       5296.4156
     16000   1.041065       1.0173824      7.8395479     -2652.4053     -4215.5644      1563.1591     -4215.5644     -5568.8272     -299.88008      1653.1428      6030.375
     17000   1.0384796      1.0165441      7.5492493     -2602.6621     -4161.9391      1559.2771     -4161.9391     -5461.2997     -299.56152      1598.9222      5758.5947
     18000   0.97822528     0.98457764     7.5813864     -2698.826      -4167.6313      1468.8053     -4167.6313     -5485.6451     -303.1722       1621.1861      5698.0246
     19000   1.0259644      1.0233034      7.3991499     -2685.6439     -4226.1293      1540.4855     -4226.1293     -5503.4347     -301.97137      1579.2767      5509.3686
     20000   1.0160286      1.0234785      7.4673113     -2648.093      -4173.6599      1525.567      -4173.6599     -5459.4894     -300.75427      1586.5837      5622.4124
     21000   0.98594281     0.99797189     7.5638819     -2650.7085     -4131.1016      1480.3931     -4131.1016     -5435.4691     -297.38193      1601.7494      5726.7548
     22000   0.98036406     0.97417113     7.370588      -2691.482      -4163.4986      1472.0166     -4163.4986     -5442.7014     -299.08569      1578.2884      5471.8964
     23000   1.0060175      1.001398       7.4539072     -2705.9919     -4216.5273      1510.5353     -4216.5273     -5512.0013     -298.21323      1593.6873      5549.6676
     24000   0.98607072     1.0013018      7.4153326     -2675.047      -4155.6322      1480.5852     -4155.6322     -5433.5029     -302.97439      1580.8451      5537.8888
     25000   0.98368207     1.0107283      7.4378752     -2692.1442     -4169.1428      1476.9986     -4169.1428     -5455.9148     -298.04355      1584.8156      5545.7589
     26000   0.99352478     0.99565141     7.8757406     -2592.1724     -4083.9499      1491.7775     -4083.9499     -5438.5614     -303.07305      1657.6846      6130.6936
     27000   0.9628963      0.9765407      7.2065755     -2800.0554     -4245.8442      1445.7888     -4245.8442     -5500.935      -303.265        1558.3558      5181.6691
     28000   0.98387592     0.97664247     7.6908871     -2673.6514     -4150.9411      1477.2897     -4150.9411     -5494.5509     -301.4084       1645.0182      5844.478
     29000   1.0327002      1.0275544      7.4262255     -2733.5293     -4284.1286      1550.5993     -4284.1286     -5575.3157     -302.5638       1593.7509      5491.4711
     30000   0.9814474      0.97743        7.5431667     -2709.2229     -4182.8661      1473.6433     -4182.8661     -5492.7599     -297.57083      1607.4646      5645.2971
     31000   1.0055759      0.99505176     7.3873283     -2691.9023     -4201.7745      1509.8723     -4201.7745     -5487.687      -298.71268      1584.6252      5490.017
     32000   1.0099251      1.0118051      7.4763309     -2655.632      -4172.0345      1516.4025     -4172.0345     -5454.6632     -303.5846       1586.2133      5624.8631
     33000   1.0126851      1.0021138      7.3900823     -2683.5955     -4204.1422      1520.5467     -4204.1422     -5472.7869     -301.9702       1570.6149      5501.3741
     34000   0.98939563     0.99412941     7.2605199     -2714.2215     -4199.799       1485.5775     -4199.799      -5437.1584     -302.84006      1540.1995      5327.2498
     35000   1.0064628      0.99217867     7.490922      -2726.4884     -4237.6923      1511.2039     -4237.6923     -5531.894      -301.83687      1596.0386      5570.1673
     36000   1.0178303      1.0170755      7.3491204     -2702.2468     -4230.519       1528.2721     -4230.519      -5509.0361     -303.42119      1581.9383      5437.3549
     37000   1.0367441      1.0238376      7.2786284     -2668.4959     -4225.1672      1556.6712     -4225.1672     -5473.4635     -301.98075      1550.2771      5393.0316
     38000   1.0349083      1.0194563      7.5919436     -2624.4586     -4178.3735      1553.9148     -4178.3735     -5489.1316     -295.5378       1606.296       5784.0847
     39000   0.98468477     1.0032141      7.4076542     -2720.9114     -4199.4156      1478.5042     -4199.4156     -5489.3709     -296.8186       1586.7739      5483.52
     40000   0.9960722      0.98238733     7.5718417     -2641.7454     -4137.3478      1495.6024     -4137.3478     -5450.6294     -292.30502      1605.5866      5744.5339
     41000   0.98206718     0.99855217     7.5430223     -2643.5364     -4118.1103      1474.5739     -4118.1103     -5409.1596     -295.9558       1587.0051      5710.8236
     42000   0.96136832     0.98383509     7.2871392     -2795.1203     -4238.6148      1443.4945     -4238.6148     -5507.873      -302.38309      1571.6413      5275.8335
     43000   1.048724       1.0068788      7.3375028     -2617.2391     -4191.8982      1574.6591     -4191.8982     -5447.0362     -303.68151      1558.8195      5509.4954
     44000   0.96973886     0.98193697     7.8494081     -2620.4984     -4076.5613      1456.0629     -4076.5613     -5432.5705     -301.67873      1657.6879      6073.2026
     45000   1.0092757      1.0090324      7.3678869     -2638.5529     -4153.9804      1515.4275     -4153.9804     -5420.4736     -302.08445      1568.5776      5521.8338
     46000   1.0017204      0.98540531     7.2648395     -2697.3194     -4201.4026      1504.0831     -4201.4026     -5447.092      -304.11003      1549.7994      5348.9361
     47000   1.0164457      0.99587412     7.2968248     -2633.5156     -4159.7088      1526.1932     -4159.7088     -5409.8147     -298.68657      1548.7925      5448.1655
     48000   0.99365116     1.0021404      7.5957884     -2697.4948     -4189.462       1491.9672     -4189.462      -5503.0993     -304.15569      1617.793       5715.3069
     49000   1.0091145      1.0039842      7.3829134     -2715.5539     -4230.7392      1515.1854     -4230.7392     -5508.8278     -300.34787      1578.4364      5461.4758
     50000   0.9999852      0.99363187     7.2696651     -2759.6826     -4261.1603      1501.4778     -4261.1603     -5518.9247     -299.64629      1557.4107      5291.9176
     51000   1.00595        0.99416027     7.5132342     -2665.0411     -4175.4751      1510.4339     -4175.4751     -5464.9767     -296.8024       1586.3041      5656.3267
     52000   1.033635       1.0387156      7.4217808     -2607.3264     -4159.3293      1552.0029     -4159.3293     -5433.8871     -301.23326      1575.791       5612.7512
     53000   1.0266901      1.0189284      7.4024558     -2626.8777     -4168.4528      1541.5751     -4168.4528     -5442.9794     -303.41361      1577.9402      5571.7963
     54000   1.0486803      1.0182602      7.4761661     -2625.5273     -4200.1207      1574.5934     -4200.1207     -5484.9207     -301.88239      1586.6824      5654.7854
     55000   0.97767708     1.0008361      7.272078      -2765.8243     -4233.8064      1467.9821     -4233.8064     -5482.0906     -300.3115       1548.5957      5288.4483
     56000   0.96838895     0.9933983      7.3750737     -2798.0986     -4252.1346      1454.036      -4252.1346     -5536.4537     -301.53992      1585.859       5370.248
     57000   0.95157968     0.99551398     7.5560332     -2771.1063     -4199.9031      1428.7969     -4199.9031     -5536.0637     -300.8514       1637.012       5597.6642
     58000   1.0466436      1.0149233      7.5369233     -2578.9398     -4150.4752      1571.5353     -4150.4752     -5429.3624     -304.91437      1583.8016      5768.6652
     59000   1.01761        1.0219694      7.5915038     -2678.7916     -4206.733       1527.9415     -4206.733      -5519.1051     -301.3716       1613.7436      5729.2646
     60000   0.99277811     1.0274428      7.6683346     -2648.1975     -4138.8539      1490.6563     -4138.8539     -5468.3973     -295.589        1625.1324      5844.9535
     61000   1.0329304      1.0125938      7.4418643     -2645.3429     -4196.2879      1550.945      -4196.2879     -5468.5881     -300.65468      1572.9549      5596.9785
     62000   1.0026331      1.0083436      7.5932809     -2659.9229     -4165.3764      1505.4535     -4165.3764     -5487.2913     -300.29632      1622.2112      5750.1016
     63000   1.0063771      0.99349007     7.4976649     -2734.9442     -4246.0194      1511.0752     -4246.0194     -5535.9746     -303.38202      1593.3372      5569.1797
     64000   1.0101712      1.000791       7.4109256     -2674.9192     -4191.6913      1516.7721     -4191.6913     -5469.55       -299.64116      1577.4999      5533.1357
     65000   0.96714141     0.9694367      7.176612      -2770.279      -4222.4418      1452.1628     -4222.4418     -5452.3012     -302.30629      1532.1656      5178.2591
     66000   1.0133283      1.0068813      7.5304278     -2577.2175     -4098.73        1521.5125     -4098.73       -5385.9878     -296.06062      1583.3184      5763.1933
     67000   0.99512412     0.99355891     7.3425676     -2690.6472     -4184.8261      1494.1789     -4184.8261     -5454.2582     -297.11129      1566.5435      5441.6969
     68000   0.97667651     1.00254        7.4286944     -2718.3112     -4184.791       1466.4798     -4184.791      -5463.0356     -301.87814      1580.1227      5509.4237
     69000   1.0011475      1.0196729      7.1300268     -2797.8934     -4301.1164      1503.223      -4301.1164     -5530.8891     -298.83681      1528.6095      5099.0488
     70000   1.0430528      1.0159384      7.4994328     -2596.6162     -4162.76        1566.1438     -4162.76       -5438.3085     -299.8          1575.3486      5709.4657
     71000   0.98255778     0.97766576     7.5103775     -2728.1659     -4203.4764      1475.3105     -4203.4764     -5499.2465     -302.52274      1598.2928      5590.038
     72000   1.0045803      0.99043279     7.5483099     -2694.8142     -4203.1916      1508.3774     -4203.1916     -5507.3254     -299.95248      1604.0863      5665.4021
     73000   1.0407151      1.0331119      7.4879674     -2602.7144     -4165.3481      1562.6338     -4165.3481     -5453.6472     -298.07458      1586.3737      5690.6689
     74000   0.97881702     0.98539346     7.4542786     -2694.8937     -4164.5874      1469.6938     -4164.5874     -5447.2785     -297.83093      1580.522       5561.1772
     75000   0.98332776     1.0072159      7.4517675     -2752.1        -4228.5666      1476.4666     -4228.5666     -5533.07       -300.45278      1604.9562      5501.1897
     76000   0.99841682     1.0288205      7.351165      -2688.0123     -4187.1352      1499.1229     -4187.1352     -5445.3338     -303.42188      1561.6205      5453.8539
     77000   1.006044       1.0009754      7.6191247     -2701.6898     -4212.2649      1510.5751     -4212.2649     -5526.8533     -302.52499      1617.1134      5736.9583
     78000   0.99406472     1.0038763      7.5283204     -2683.4412     -4176.0293      1492.5882     -4176.0293     -5478.9408     -300.65058      1603.562       5654.6356
     79000   0.98244784     1.0158898      7.1703229     -2761.6679     -4236.8133      1475.1454     -4236.8133     -5473.7436     -296.7749       1533.7052      5179.9046
     80000   1.0058212      1.0236005      7.5591174     -2693.0327     -4203.2733      1510.2406     -4203.2733     -5500.6285     -301.14701      1598.5022      5679.1536
     81000   1.0101018      0.99854715     7.2236252     -2757.2802     -4273.948       1516.6678     -4273.948      -5529.3657     -300.4922       1555.91        5243.3279
     82000   0.97622309     0.97517629     7.2782064     -2751.7115     -4217.5104      1465.799      -4217.5104     -5482.0422     -295.29117      1559.823       5309.3486
     83000   1.0199383      1.0173512      7.3816755     -2708.7772     -4240.2146      1531.4373     -4240.2146     -5513.3824     -302.17679      1575.3446      5466.8812
     84000   0.97621737     0.98837376     7.1147117     -2837.7484     -4303.5387      1465.7904     -4303.5387     -5534.4094     -303.38921      1534.2599      5042.2313
     85000   1.0050652      1.0055873      7.4033665     -2727.3        -4236.4054      1509.1055     -4236.4054     -5515.7109     -299.50869      1578.8141      5472.3827
     86000   1.026796       1.0167024      7.0800093     -2674.6392     -4216.3734      1541.7342     -4216.3734     -5421.5432     -303.64476      1508.8146      5166.9055
     87000   0.9800098      1.0052649      7.3175704     -2789.2161     -4260.7008      1471.4847     -4260.7008     -5528.0118     -303.48963      1570.8007      5315.4421
     88000   1.010393       0.99109879     7.0587441     -2795.9702     -4313.0753      1517.1051     -4313.0753     -5535.223      -300.31002      1522.4577      5022.022
     89000   1.0098281      1.0115622      7.4789617     -2745.0826     -4261.3395      1516.2569     -4261.3395     -5559.9898     -300.96557      1599.6159      5538.3264
     90000   0.9584878      0.98341075     7.5225982     -2688.7645     -4127.9339      1439.1694     -4127.9339     -5432.5681     -301.75821      1606.3924      5642.9746
     91000   0.98235775     0.97919002     7.4665964     -2669.6759     -4144.6861      1475.0102     -4144.6861     -5420.2454     -302.77908      1578.3384      5600.0378
     92000   0.99229269     0.99212289     7.1789577     -2753.0905     -4243.018       1489.9275     -4243.018      -5478.2541     -301.0231       1536.2593      5198.0456
     93000   1.009654       1.0016369      7.6529949     -2672.7634     -4188.7588      1515.9954     -4188.7588     -5510.8681     -301.28178      1623.3911      5803.3981
     94000   1.0367861      1.0171158      7.7040152     -2603.0651     -4159.7994      1556.7343     -4159.7994     -5484.9337     -298.97232      1624.1066      5929.6044
     95000   0.99259155     0.98221039     7.1733529     -2784.6479     -4275.0241      1490.3762     -4275.0241     -5534.1018     -301.9359       1561.0136      5160.2806
     96000   1.038571       1.0184275      7.6963059     -2588.641      -4148.0553      1559.4143     -4148.0553     -5458.1454     -301.41143      1611.5016      5935.49
     97000   0.98958126     0.98382843     7.6044515     -2707.7282     -4193.5844      1485.8563     -4193.5844     -5511.2139     -303.65156      1621.2811      5714.6684
     98000   1.0022689      0.97692467     7.3435672     -2695.6156     -4200.5225      1504.9068     -4200.5225     -5469.1555     -298.18067      1566.8137      5437.8356
     99000   1.0285238      1.0192586      7.4904652     -2667.1728     -4211.5012      1544.3284     -4211.5012     -5502.0305     -300.28987      1590.8191      5628.977
    100000   1.0047621      1.0054866      7.4674923     -2710.2669     -4218.9172      1508.6503     -4218.9172     -5495.4539     -301.29212      1577.8288      5560.439
Loop time of 1141.49 on 1 procs for 100000 steps with 1002 atoms

Performance: 37845.383 tau/day, 87.605 timesteps/s
100.0% CPU use with 1 MPI tasks x 1 OpenMP threads

MPI task timing breakdown:
Section |  min time  |  avg time  |  max time  |%varavg| %total
---------------------------------------------------------------
Pair    | 5.0916     | 5.0916     | 5.0916     |   0.0 |  0.45
Kspace  | 1116.6     | 1116.6     | 1116.6     |   0.0 | 97.82
Neigh   | 0.014101   | 0.014101   | 0.014101   |   0.0 |  0.00
Comm    | 10.928     | 10.928     | 10.928     |   0.0 |  0.96
Output  | 0.013919   | 0.013919   | 0.013919   |   0.0 |  0.00
Modify  | 7.8671     | 7.8671     | 7.8671     |   0.0 |  0.69
Other   |            | 0.9732     |            |       |  0.09

Nlocal:           1002 ave        1002 max        1002 min
Histogram: 1 0 0 0 0 0 0 0 0 0
Nghost:           7649 ave        7649 max        7649 min
Histogram: 1 0 0 0 0 0 0 0 0 0
Neighs:              0 ave           0 max           0 min
Histogram: 1 0 0 0 0 0 0 0 0 0

Total # of neighbors = 0
Ave neighs/atom = 0
Neighbor list builds = 10151
Dangerous builds = 1

undump         1
unfix          1
unfix          2
unfix          3
unfix          4

#####################################################
# Equilibration (NVT Sphere with colvars)

fix		         1 all nve/sphere update dipole
fix            2 all langevin 1.0 1.0 1.0 214323 omega yes
fix            3 ions colvars input.equil.colvars output equil

thermo		     1000
thermo_style	 custom step temp c_tempSph press etotal pe ke epair ecoul elong evdwl enthalpy
WARNING: New thermo_style command, previous thermo_modify settings will be lost (../output.cpp:903)
thermo_modify  norm no
dump	       	 1 all custom 10000 dump.dipoleEquil id type x y z q mux muy muz

timestep	     0.005
run		         500000
EwaldDisp initialization ...
Generated 3 of 3 mixed pair_coeff terms from geometric mixing rule
  G vector = 0.55961375,   accuracy = 0.0001
Generated 3 of 3 mixed pair_coeff terms from geometric mixing rule
colvars: Creating proxy instance
colvars: ----------------------------------------------------------------------
colvars: Initializing the collective variables module, version 2022-05-24.
colvars: Please cite Fiorin et al, Mol Phys 2013:
colvars:   https://doi.org/10.1080/00268976.2013.813594
colvars: as well as all other papers listed below for individual features used.
colvars: This version was built with the C++11 standard or higher.
colvars: Using LAMMPS interface, version "2022-05-09".
colvars: ----------------------------------------------------------------------
colvars: Reading new configuration from file "input.equil.colvars":
colvars: # units = "" [default]
colvars: # indexFile = "groups.ndx"
colvars: The following index groups are currently defined:
colvars:   cation (1 atoms)
colvars:   anion (1 atoms)
colvars: # smp = on [default]
colvars: # colvarsTrajFrequency = 500
colvars: # colvarsRestartFrequency = 0 [default]
colvars: # scriptedColvarForces = off [default]
colvars: # scriptingAfterBiases = off [default]
colvars: ----------------------------------------------------------------------
colvars:   Initializing a new collective variable.
colvars:   # name = "dist"
colvars:   Initializing a new "distance" component.
colvars:     # name = "" [default]
colvars:     # componentCoeff = 1 [default]
colvars:     # componentExp = 1 [default]
colvars:     # period = 0 [default]
colvars:     # wrapAround = 0 [default]
colvars:     # forceNoPBC = off [default]
colvars:     # scalable = on [default]
colvars:       Initializing atom group "group1".
colvars:       # name = "" [default]
colvars:       # centerToOrigin = off [default]
colvars:       # centerToReference = off [default]
colvars:       # rotateToReference = off [default]
colvars:       # atomsOfGroup = "" [default]
colvars:       # indexGroup = "cation"
colvars:       # psfSegID =  [default]
colvars:       # atomsFile = "" [default]
colvars:       # dummyAtom = ( 0 , 0 , 0 ) [default]
colvars:       # enableFitGradients = on [default]
colvars:       # printAtomIDs = off [default]
colvars:       Atom group "group1" defined with 1 atoms requested.
colvars:       Initializing atom group "group2".
colvars:       # name = "" [default]
colvars:       # centerToOrigin = off [default]
colvars:       # centerToReference = off [default]
colvars:       # rotateToReference = off [default]
colvars:       # atomsOfGroup = "" [default]
colvars:       # indexGroup = "anion"
colvars:       # psfSegID =  [default]
colvars:       # atomsFile = "" [default]
colvars:       # dummyAtom = ( 0 , 0 , 0 ) [default]
colvars:       # enableFitGradients = on [default]
colvars:       # printAtomIDs = off [default]
colvars:       Atom group "group2" defined with 1 atoms requested.
colvars:     # oneSiteSystemForce = off [default]
colvars:     # oneSiteTotalForce = off [default]
colvars:   All components initialized.
colvars:   # timeStepFactor = 1 [default]
colvars:   # width = 0.01
colvars:   # lowerBoundary = 0.75
colvars:   # upperBoundary = 2
colvars:   # hardLowerBoundary = off [default]
colvars:   # hardUpperBoundary = off [default]
colvars:   # expandBoundaries = off [default]
colvars:   # extendedLagrangian = off [default]
colvars:   # outputValue = on [default]
colvars:   # outputVelocity = off [default]
colvars:   # outputTotalForce = off [default]
colvars:   # outputAppliedForce = off [default]
colvars:   # subtractAppliedForce = off [default]
colvars:   # runAve = off [default]
colvars:   # corrFunc = off [default]
colvars: ----------------------------------------------------------------------
colvars: Collective variables initialized, 1 in total.
colvars: ----------------------------------------------------------------------
colvars:   Initializing a new "abf" instance.
colvars:   # name = "abf_dist"
colvars:   # colvars = { dist }
colvars:   # stepZeroData = off [default]
colvars:   # outputEnergy = on
colvars:   # outputFreq = 1000
colvars:   # timeStepFactor = 1 [default]
colvars:   WARNING: ABF should not be run without a thermostat or at 0 Kelvin!
colvars:   # applyBias = on [default]
colvars:   # updateBias = on [default]
colvars:   # hideJacobian = off [default]
colvars:   Jacobian (geometric) forces will be included in reported free energy gradients.
colvars:   # fullSamples = 1000
colvars:   # inputPrefix =  [default]
colvars:   # historyFreq = 1000000
colvars:   # shared = off [default]
colvars:   # maxForce =  [default]
colvars:   # integrate = on [default]
colvars:   Finished ABF setup.
colvars: ----------------------------------------------------------------------
colvars:   Initializing a new "harmonicwalls" instance.
colvars:   # name = "wall_dist"
colvars:   # colvars = { dist }
colvars:   # stepZeroData = off [default]
colvars:   # outputEnergy = off [default]
colvars:   # outputFreq = 0 [default]
colvars:   # timeStepFactor = 1 [default]
colvars:   # writeTISamples = off [default]
colvars:   # writeTIPMF = off [default]
colvars:   # forceConstant = 1 [default]
colvars:   # targetForceConstant = -1 [default]
colvars:   # lowerWalls = { 0.7 }
colvars:   # upperWalls = { 2.05 }
colvars:   # lowerWallConstant = 1
colvars:   # upperWallConstant = 1
colvars:   The lower wall force constant for colvar "dist" will be rescaled to 10000 according to the specified width (0.01).
colvars:   The upper wall force constant for colvar "dist" will be rescaled to 10000 according to the specified width (0.01).
colvars: ----------------------------------------------------------------------
colvars: Collective variables biases initialized, 2 in total.
colvars: ----------------------------------------------------------------------
colvars: Collective variables module (re)initialized.
colvars: ----------------------------------------------------------------------
colvars: The restart output state file will be "rest.colvars.state".
colvars: The final output state file will be "equil.colvars.state".
colvars: Opening trajectory file "equil.colvars.traj".
colvars: Setting initial step number from LAMMPS: 100000
colvars: Re-initialized atom group for variable "dist":0/0. 1 atoms: total mass = 1.2767, total charge = 13.626.
colvars: Re-initialized atom group for variable "dist":0/1. 1 atoms: total mass = 3.9411, total charge = -13.626.
colvars:   Prepared sample and gradient buffers at step 100000.
Per MPI rank memory allocation (min/avg/max) = 18.22 | 18.22 | 18.22 Mbytes
   Step          Temp        c_tempSph        Press          TotEng         PotEng         KinEng         E_pair         E_coul         E_long         E_vdwl        Enthalpy
    100000   1.0047621      1.0054866      7.4674924     -2710.2669     -4218.9172      1508.6503     -4218.9172     -5495.4539     -301.29212      1577.8288      5560.4391
    101000   1.0081         0.99532685     7.4586976     -2643.6855     -4157.3476      1513.6621     -4157.3476     -5449.4559     -297.01873      1589.1271      5617.2797
    102000   1.0038033      1.0088841      7.3047289     -2705.6737     -4212.8844      1507.2107     -4212.8844     -5469.566      -304.32688      1561.0085      5384.7617
    103000   1.0179074      1.0164716      7.2438948     -2721.6428     -4250.0308      1528.388      -4250.0308     -5490.4776     -301.49203      1541.9389      5301.4151
    104000   0.97554523     0.98571644     7.821481      -2725.4102     -4190.1914      1464.7812     -4190.1914     -5554.8329     -299.25721      1663.8987      5937.36
    105000   0.99785712     0.98463339     7.4366803     -2720.6526     -4218.9351      1498.2825     -4218.9351     -5508.6657     -300.78519      1590.5158      5515.9271
    106000   0.98548217     0.98811653     7.4082895     -2715.4553     -4195.1568      1479.7015     -4195.1568     -5483.6874     -299.84953      1588.3801      5489.6799
    107000   0.99822785     0.99860176     7.4188202     -2739.1275     -4237.9666      1498.8391     -4237.9666     -5523.3279     -296.87402      1582.2352      5477.671
    108000   1.0295304      1.0052679      7.5570189     -2667.0831     -4212.923       1545.8399     -4212.923      -5518.7239     -300.82004      1606.6209      5702.779
    109000   0.98944006     0.98701982     7.3579467     -2629.9751     -4115.6194      1485.6443     -4115.6194     -5348.5541     -302.36552      1535.3002      5519.4023
    110000   1.0091397      1.0098599      7.2435107     -2681.4702     -4196.6934      1515.2232     -4196.6934     -5433.7359     -301.35344      1538.396       5341.1623
    111000   1.0108293      0.99798637     7.0591224     -2689.6005     -4207.3606      1517.7602     -4207.3606     -5405.682      -301.05838      1499.3797      5128.8106
    112000   0.99892089     0.99374269     7.7967444     -2637.1039     -4136.9837      1499.8797     -4136.9837     -5494.0678     -298.2135       1655.2977      5998.2688
    113000   0.97561385     1.011015       7.4384676     -2751.1505     -4216.0346      1464.8842     -4216.0346     -5514.8713     -303.66543      1602.5021      5487.4088
    114000   0.99567088     0.99350357     7.2275492     -2710.3672     -4205.367       1494.9998     -4205.367      -5450.4795     -294.29226      1539.4048      5294.587
    115000   1.0050629      1.0098959      7.3697235     -2627.7344     -4136.8364      1509.102      -4136.8364     -5393.5596     -301.33967      1558.0629      5534.6865
    116000   0.99774116     0.99332747     7.3360498     -2785.1918     -4283.3002      1498.1084     -4283.3002     -5561.7396     -300.95081      1579.3902      5339.9335
    117000   1.0020366      1.0259032      7.2920153     -2644.789      -4149.3469      1504.5579     -4149.3469     -5381.0167     -304.05339      1535.7232      5431.5654
    118000   1.0195851      1.0154023      7.5621802     -2698.1224     -4229.0294      1530.907      -4229.0294     -5545.7258     -299.982        1616.6784      5677.4561
    119000   1.020462       1.012322       7.1564032     -2669.914      -4202.1377      1532.2237     -4202.1377     -5406.9462     -301.85566      1506.6642      5256.2416
    120000   1.0062786      1.0259568      7.1671771     -2739.2938     -4250.2211      1510.9273     -4250.2211     -5475.4411     -299.25146      1524.4715      5198.7946
    121000   0.97353928     0.98299055     7.4004807     -2678.1089     -4139.8781      1461.7692     -4139.8781     -5396.6498     -299.1773       1555.949       5518.3776
    122000   1.027886       1.0178513      7.2132353     -2676.3516     -4219.7223      1543.3708     -4219.7223     -5450.4294     -301.90826      1532.6153      5312.7491
    123000   1.0345934      1.0219463      7.3702798     -2613.5593     -4167.0013      1553.4419     -4167.0013     -5419.5373     -300.73232      1553.2684      5549.4777
    124000   1.0025775      1.0102949      7.2989576     -2691.7381     -4197.1082      1505.3702     -4197.1082     -5456.8302     -301.69594      1561.4179      5392.3054
    125000   0.98935578     1.0054999      7.2795838     -2732.3508     -4217.8685      1485.5177     -4217.8685     -5486.8771     -301.31045      1570.319       5330.2349
    126000   1.0359896      1.0252464      7.1948287     -2657.1992     -4212.7376      1555.5384     -4212.7376     -5425.9735     -297.65822      1510.8941      5311.5151
    127000   1.0154627      1.005151       7.6325081     -2634.6607     -4159.3779      1524.7172     -4159.3779     -5477.3319     -294.78486      1612.7389      5818.8103
    128000   1.0062669      1.0166151      7.5404373     -2709.9667     -4220.8765      1510.9098     -4220.8765     -5522.6975     -303.90199      1605.723       5641.5303
    129000   1.0022705      0.98506278     7.3911255     -2711.2919     -4216.2011      1504.9092     -4216.2011     -5479.5769     -305.5676       1568.9434      5474.8331
    130000   1.0231063      1.0382287      7.5211049     -2647.2506     -4183.4447      1536.1941     -4183.4447     -5472.7568     -300.62608      1589.9382      5682.8346
    131000   0.99149381     1.0043286      7.2774897     -2730.3537     -4219.0817      1488.728      -4219.0817     -5480.0056     -295.82752      1556.7515      5329.9126
    132000   0.99090947     1.0069512      7.5526042     -2632.7376     -4120.5881      1487.8506     -4120.5881     -5406.8398     -302.36058      1588.6123      5732.235
    133000   1.0349733      1.0196067      7.7881377     -2669.1347     -4223.1472      1554.0124     -4223.1472     -5572.5107     -298.67546      1648.039       5956.7056
    134000   0.97324647     0.98893036     7.1389121     -2755.2757     -4216.6053      1461.3296     -4216.6053     -5447.4424     -303.15394      1533.991       5151.5074
    135000   0.98501915     0.99000566     7.1290393     -2693.8835     -4172.8898      1479.0063     -4172.8898     -5396.818      -299.56417      1523.4924      5201.9649
    136000   1.051934       1.02099        7.2607323     -2681.2862     -4260.7651      1579.4788     -4260.7651     -5522.5979     -294.32036      1556.1532      5360.4203
    137000   1.0031276      1.0320471      7.5422016     -2660.6458     -4166.8418      1506.196      -4166.8418     -5465.7442     -299.05511      1597.9575      5692.8052
    138000   0.97604911     0.99076555     7.2566874     -2711.1535     -4176.6912      1465.5377     -4176.6912     -5431.9857     -302.12444      1557.4189      5326.073
    139000   0.97948841     0.97958585     7.5772309     -2622.3582     -4093.0601      1470.7019     -4093.0601     -5398.9365     -300.29417      1606.1706      5769.8899
    140000   1.0095349      1.0033723      7.3914022     -2729.5478     -4245.3645      1515.8167     -4245.3645     -5518.3589     -302.6428       1575.6373      5456.8837
    141000   1.040541       1.0548873      7.7715922     -2586.2391     -4148.6114      1562.3723     -4148.6114     -5489.0771     -301.26486      1641.7306      6021.276
    142000   1.0059251      0.98573229     7.4404257     -2739.2534     -4249.6499      1510.3965     -4249.6499     -5526.89       -301.89015      1579.1302      5501.4745
    143000   1.0355455      1.0379796      7.4859469     -2628.2401     -4183.1116      1554.8715     -4183.1116     -5467.4924     -302.16422      1586.545       5662.9054
    144000   0.99791763     1.0223103      7.5598738     -2717.4446     -4215.818       1498.3733     -4215.818      -5532.3551     -304.70868      1621.2459      5655.5794
    145000   0.97952679     0.9942078      7.3210115     -2717.2338     -4187.9933      1470.7595     -4187.9933     -5454.3673     -304.36528      1570.7393      5391.2355
    146000   0.98531774     0.9871562      7.556768      -2730.5903     -4210.0449      1479.4546     -4210.0449     -5517.9994     -299.6475       1607.6021      5638.9939
    147000   0.96893341     0.97640477     7.5064807     -2718.4703     -4173.3238      1454.8535     -4173.3238     -5495.7539     -301.02677      1623.4569      5595.4176
    148000   0.99184819     0.99935961     7.3922598     -2641.1769     -4130.437       1489.2601     -4130.437      -5394.0193     -297.75036      1561.3327      5546.2044
    149000   1.0321123      1.0184365      7.3538028     -2715.0186     -4264.7352      1549.7166     -4264.7352     -5528.7838     -300.88371      1564.9323      5429.7691
    150000   0.99959719     1.0056275      7.2805971     -2738.1352     -4239.0303      1500.8952     -4239.0303     -5496.7819     -300.43865      1558.1902      5325.5729
    151000   1.0289781      1.0379437      7.4302244     -2606.1586     -4151.1692      1545.0106     -4151.1692     -5417.1209     -303.57887      1569.5306      5623.2707
    152000   1.0322244      1.0051542      7.2859862     -2743.5938     -4293.4787      1549.8849     -4293.4787     -5548.0572     -301.08618      1555.6647      5326.083
    153000   0.99290574     0.98777314     7.4111414     -2715.2315     -4206.0795      1490.848      -4206.0795     -5488.2633     -298.69228      1580.8761      5493.0623
    154000   1.0232431      1.002549       7.4832487     -2576.5179     -4112.9175      1536.3995     -4112.9175     -5380.4272     -298.98254      1566.4923      5711.6392
    155000   0.99957231     0.993225       7.3998062     -2706.7569     -4207.6147      1500.8578     -4207.6147     -5492.4998     -297.85312      1582.7382      5488.9825
    156000   1.0106917      1.0033521      7.626077      -2707.9031     -4225.4568      1517.5537     -4225.4568     -5545.5586     -295.38229      1615.4841      5738.4451
    157000   1.0366162      1.007748       7.4845725     -2668.4892     -4224.9684      1556.4792     -4224.9684     -5512.2309     -299.67956      1586.942       5621.134
    158000   1.003129       0.9903599      7.0851563     -2745.8818     -4252.0801      1506.1983     -4252.0801     -5460.4237     -298.43359      1506.7772      5101.3636
    159000   0.9811921      0.96145629     7.4034941     -2694.2193     -4167.4793      1473.2599     -4167.4793     -5437.6913     -304.61784      1574.8299      5505.6046
    160000   1.0122234      1.0216257      7.3429913     -2659.058      -4178.9115      1519.8535     -4178.9115     -5430.3083     -304.24062      1555.6374      5473.7554
    161000   1.0101734      1.0012881      7.7124336     -2708.487      -4225.2625      1516.7754     -4225.2625     -5570.0334     -303.23353      1648.0045      5833.5064
    162000   1.0253127      1.0072906      7.427764      -2620.5017     -4160.0086      1539.507      -4160.0086     -5435.2005     -301.2312       1576.423       5606.2027
    163000   1.0053971      0.98883397     7.5264044     -2642.8561     -4152.4599      1509.6038     -4152.4599     -5448.4588     -298.76316      1594.7621      5693.0985
    164000   0.99929139     0.99094944     7.211373      -2759.3112     -4259.7472      1500.436      -4259.7472     -5522.4441     -298.61261      1561.3095      5227.7269
    165000   1.0036357      0.99897649     7.3843135     -2756.3151     -4263.2742      1506.9591     -4263.2742     -5547.0217     -304.43829      1588.1858      5422.2651
    166000   0.96124119     0.99834598     7.5638437     -2666.6426     -4109.9463      1443.3037     -4109.9463     -5409.3168     -305.34439      1604.7149      5710.7783
    167000   1.0315616      0.99987255     7.4728765     -2609.3581     -4158.2478      1548.8897     -4158.2478     -5431.7952     -303.26751      1576.8148      5667.3111
    168000   1.0532542      1.0317863      7.253664      -2664.8294     -4246.2906      1581.4612     -4246.2906     -5476.147      -302.1331       1531.9895      5369.0485
    169000   0.96663063     0.96793258     7.1781291     -2756.7333     -4208.1292      1451.3959     -4208.1292     -5440.6598     -299.31489      1531.8455      5193.4851
    170000   0.99373653     1.0068456      7.2225193     -2774.7645     -4266.8599      1492.0954     -4266.8599     -5517.4805     -303.0936       1553.7142      5224.6187
    171000   1.0184668      0.99907106     7.6457399     -2626.5317     -4155.7596      1529.2279     -4155.7596     -5475.9402     -298.91532      1619.0959      5841.5943
    172000   0.93972272     0.94358727     7.073797      -2809.4794     -4220.4731      1410.9937     -4220.4731     -5442.5183     -299.12104      1521.1663      5025.1848
    173000   1.02031        1.0217667      7.4937604     -2730.5396     -4262.5351      1531.9955     -4262.5351     -5556.7186     -301.77303      1595.9566      5569.2598
    174000   1.0324569      0.99833288     7.5244969     -2653.5755     -4203.8096      1550.234      -4203.8096     -5510.0179     -301.67734      1607.8857      5680.2665
    175000   0.99489406     1.0027129      7.4567129     -2723.6717     -4217.5051      1493.8334     -4217.5051     -5505.4257     -299.68743      1587.608       5535.0954
    176000   1.0218996      1.0331824      7.4081116     -2620.1174     -4154.4996      1534.3822     -4154.4996     -5419.7248     -299.869        1565.0941      5584.8208
    177000   1.0640957      1.0235866      7.4816764     -2627.0407     -4224.7804      1597.7398     -4224.7804     -5506.341      -304.51125      1586.0718      5659.3749
    178000   1.0044455      0.99588374     6.9689806     -2797.222      -4305.3969      1508.1749     -4305.3969     -5508.9861     -301.30131      1504.8905      4921.3515
    179000   0.96822313     0.98301192     7.3617068     -2719.6765     -4173.4636      1453.787      -4173.4636     -5440.0756     -302.53262      1569.1446      5433.8654
    180000   1.0028632      1.0123967      7.2298206     -2660.1809     -4165.98        1505.7991     -4165.98       -5416.2541     -299.62694      1549.901       5347.289
    181000   0.97623083     0.98327769     7.5765826     -2638.0699     -4103.8805      1465.8106     -4103.8805     -5405.2507     -300.85512      1602.2252      5753.4601
    182000   1.029188       1.0229113      6.982271      -2674.4114     -4219.7372      1545.3257     -4219.7372     -5400.3783     -298.79415      1479.4353      5058.8821
    183000   1.0174321      0.99395332     7.5461102     -2555.2094     -4082.8837      1527.6743     -4082.8837     -5367.3387     -295.53351      1579.9885      5802.5706
    184000   0.9802115      0.97495129     7.4501662     -2722.9054     -4194.693       1471.7876     -4194.693      -5483.5647     -301.57591      1590.4476      5528.6107
    185000   1.0445873      1.0139018      7.5105843     -2616.8116     -4185.2594      1568.4479     -4185.2594     -5470.2869     -301.24416      1586.2717      5701.6214
    186000   1.0163897      1.0089663      7.2512351     -2699.9545     -4226.0636      1526.1091     -4226.0636     -5464.6713     -298.13448      1536.7422      5331.2333
    187000   1.0370219      1.0340463      7.5404412     -2674.113      -4231.2013      1557.0884     -4231.2013     -5530.2092     -300.65111      1599.659       5677.3883
    188000   0.98303751     0.9889309      7.6332434     -2621.6728     -4097.7036      1476.0308     -4097.7036     -5396.2701     -298.22403      1596.7905      5832.6125
    189000   0.98575967     1.0015185      7.3066547     -2650.932      -4131.0501      1480.1181     -4131.0501     -5375.831      -304.16741      1548.9482      5441.6364
    190000   1.0626613      1.0388202      7.3308159     -2655.2166     -4250.8026      1595.5859     -4250.8026     -5518.4631     -300.54003      1568.2005      5464.1117
    191000   1.0106184      1.0169123      7.8664951     -2603.4426     -4120.8861      1517.4435     -4120.8861     -5487.1878     -300.75575      1667.0575      6109.1834
    192000   0.94442635     0.98078838     7.2578265     -2751.6802     -4169.7363      1418.0562     -4169.7363     -5425.6071     -297.50182      1553.3726      5286.808
    193000   0.93844417     0.97055104     7.2760678     -2764.3428     -4173.4167      1409.0739     -4173.4167     -5422.6445     -295.95278      1545.1805      5294.3487
    194000   1.0308421      1.005811       7.3358769     -2654.0639     -4201.8734      1547.8095     -4201.8734     -5472.082      -299.09593      1569.3045      5470.8698
    195000   1.0054917      1.0017533      7.3954858     -2678.189      -4187.9347      1509.7458     -4187.9347     -5455.392      -303.32274      1570.78        5512.7653
    196000   1.00373        0.99405199     7.7852845     -2641.279      -4148.3797      1507.1006     -4148.3797     -5496.862      -300.6322       1649.1146      5981.4012
    197000   0.98039285     1.0028769      7.2743194     -2747.1532     -4219.213       1472.0599     -4219.213      -5477.1392     -302.42242      1560.3486      5309.6019
    198000   0.98425388     0.97599896     7.3564739     -2693.3044     -4171.1616      1477.8572     -4171.1616     -5431.5885     -300.94972      1561.3766      5454.4418
    199000   0.97088969     0.99735795     7.1173791     -2735.8921     -4193.683       1457.7909     -4193.683      -5430.5838     -299.97904      1536.8799      5147.0419
    200000   0.99089808     0.99502053     7.6421588     -2659.7417     -4147.5751      1487.8335     -4147.5751     -5462.5353     -302.03368      1616.9939      5804.4181
    201000   1.0056354      0.98560199     7.4405598     -2673.3815     -4183.343       1509.9615     -4183.343      -5472.4033     -301.38792      1590.4482      5567.495
    202000   1.0302773      1.0065436      7.5879239     -2600.6941     -4147.6555      1546.9614     -4147.6555     -5441.783      -300.84901      1594.9765      5803.3971
    203000   1.0463202      1.0352062      7.787346      -2593.8681     -4164.9178      1571.0497     -4164.9178     -5503.5897     -303.62959      1642.3015      6031.0953
    204000   1.0676483      1.036711       7.6969        -2526.3732     -4129.4471      1603.0739     -4129.4471     -5443.5296     -302.87802      1616.9605      5998.4157
    205000   1.0252722      1.0178747      7.3527328     -2720.8427     -4260.2889      1539.4462     -4260.2889     -5524.0217     -301.40921      1565.142       5422.76
    206000   0.98055958     0.99188369     7.3190847     -2687.7552     -4160.0654      1472.3102     -4160.0654     -5424.2381     -303.78513      1567.9578      5418.5802
    207000   1.0030935      1.005676       7.4034121     -2679.7558     -4185.9007      1506.1449     -4185.9007     -5482.2641     -296.16319      1592.5266      5519.9773
    208000   1.0490275      1.0194554      7.6900958     -2556.2326     -4131.3474      1575.1148     -4131.3474     -5456.8969     -297.93883      1623.4884      5961.0203
    209000   0.98178979     0.98610563     7.4614115     -2673.8373     -4147.9947      1474.1574     -4147.9947     -5462.152      -300.4589       1614.6162      5590.1337
    210000   0.99809112     0.98100442     7.7297574     -2649.1566     -4147.7904      1498.6338     -4147.7904     -5488.3957     -300.13221      1640.7374      5912.0239
    211000   0.99965867     1.007642       7.5194313     -2665.1298     -4166.1172      1500.9875     -4166.1172     -5455.9327     -302.99283      1592.8083      5663.1018
    212000   0.98370806     0.98727615     7.3518823     -2744.2191     -4221.2567      1477.0376     -4221.2567     -5496.5926     -302.34387      1577.6798      5398.4417
    213000   1.036344       1.0062604      7.4388228     -2669.4213     -4225.4918      1556.0705     -4225.4918     -5509.2978     -296.91949      1580.7255      5569.5313
    214000   1.0382506      1.0123021      7.1091363     -2678.6264     -4237.5597      1558.9333     -4237.5597     -5440.8107     -300.16172      1503.4127      5195.1783
    215000   1.050857       1.0168025      8.0088222     -2552.4297     -4130.2915      1577.8618     -4130.2915     -5518.7708     -301.767        1690.2463      6317.8323
    216000   1.009906       0.99466081     7.3593007     -2650.0245     -4166.3983      1516.3738     -4166.3983     -5439.8261     -295.15658      1568.5844      5500.8526
    217000   0.98095199     0.97671759     7.5908842     -2670.4081     -4143.3075      1472.8994     -4143.3075     -5458.7133     -300.27155      1615.6773      5736.9618
    218000   0.9553557      0.94476186     7.3827648     -2747.2008     -4181.6674      1434.4666     -4181.6674     -5454.1236     -299.93379      1572.39        5429.6641
    219000   1.0559851      1.028318       7.5506598     -2642.0542     -4227.6159      1585.5617     -4227.6159     -5532.1016     -303.22491      1607.7106      5720.7648
    220000   0.97542006     0.97502849     7.4050862     -2708.5211     -4173.1143      1464.5932     -4173.1143     -5454.1987     -302.27505      1583.3594      5493.0662
    221000   0.98671172     0.99349132     7.4112786     -2688.7837     -4170.3314      1481.5476     -4170.3314     -5446.8095     -303.05846      1579.5366      5519.662
    222000   1.0072078      0.9959395      7.4032473     -2653.5043     -4165.8267      1512.3225     -4165.8267     -5425.9624     -298.00783      1558.1435      5546.0463
    223000   1.0278898      1.0124286      7.122898      -2683.6254     -4227.0019      1543.3766     -4227.0019     -5460.8558     -293.09882      1526.9527      5205.4211
    224000   0.9517914      0.95009001     7.6649796     -2739.2947     -4168.4095      1429.1148     -4168.4095     -5518.5658     -297.65452      1647.8109      5750.1405
    225000   0.97132295     0.97727449     7.1911881     -2717.2981     -4175.7396      1458.4414     -4175.7396     -5419.5498     -299.90036      1543.7106      5247.3838
    226000   0.9778616      0.98949365     6.9486819     -2770.3097     -4238.5689      1468.2592     -4238.5689     -5430.7371     -301.43628      1493.6045      4925.7818
    227000   0.9897829      0.98364115     7.3426141     -2764.8019     -4250.9609      1486.159      -4250.9609     -5503.7357     -304.16125      1556.936       5367.5938
    228000   1.0273183      1.013949       7.2243194     -2650.9        -4193.4185      1542.5184     -4193.4185     -5427.378      -303.1111       1537.0706      5350.477
    229000   0.98806836     0.98379186     7.381598      -2687.6249     -4171.2095      1483.5846     -4171.2095     -5441.3806     -302.63257      1572.8036      5487.9478
    230000   1.0041474      1.0100922      7.3232759     -2739.6309     -4247.3583      1507.7274     -4247.3583     -5519.511      -297.40387      1569.5565      5371.3464
    231000   0.99416238     0.98860935     7.9701151     -2682.8477     -4175.5826      1492.7348     -4175.5826     -5564.178      -300.85433      1689.4498      6144.5437
    232000   1.0312754      1.0121223      7.4078846     -2735.5913     -4284.0514      1548.4601     -4284.0514     -5570.5002     -302.06799      1588.5169      5469.0955
    233000   1.0504468      1.0253627      7.4471704     -2644.7173     -4221.9631      1577.2458     -4221.9631     -5499.4854     -301.08485      1578.6071      5603.4808
    234000   1.0285317      1.0055861      7.3539282     -2617.4228     -4161.7632      1544.3404     -4161.7632     -5433.1413     -297.23305      1568.6111      5527.5039
    235000   0.97676909     0.99302325     7.1151882     -2779.9654     -4246.5842      1466.6188     -4246.5842     -5469.3025     -300.82994      1523.5482      5100.5421
    236000   1.0329677      1.0312488      7.3901348     -2697.3825     -4248.3836      1551.0011     -4248.3836     -5514.1285     -299.05505      1564.7999      5487.6452
    237000   1.0133502      1.0193578      7.293935      -2681.2665     -4202.8118      1521.5453     -4202.8118     -5461.795      -295.87456      1554.8577      5397.214
    238000   1.0128623      1.0147762      7.6104359     -2660.4084     -4181.221       1520.8127     -4181.221      -5488.0084     -301.59108      1608.3785      5768.6163
    239000   1.041396       1.0374457      7.6240121     -2617.8255     -4181.4816      1563.6561     -4181.4816     -5504.0504     -299.82769      1622.3965      5826.2356
    240000   1.0281651      1.0086863      7.5031675     -2676.9975     -4220.7874      1543.7899     -4220.7874     -5518.3947     -304.16073      1601.768       5633.2209
    241000   1.035517       1.0245644      7.1245609     -2636.5602     -4191.389       1554.8288     -4191.389      -5409.2679     -298.84139      1516.7203      5254.3281
    242000   1.0079026      0.99457683     7.2321122     -2785.5894     -4298.9551      1513.3658     -4298.9551     -5552.7301     -301.20539      1554.9803      5224.4186
    243000   0.95520624     0.96899064     7.5088691     -2750.1201     -4184.3622      1434.2422     -4184.3622     -5493.6004     -298.82066      1608.0589      5566.4132
    244000   0.96839618     0.98359613     7.0787124     -2757.232      -4211.2788      1454.0469     -4211.2788     -5419.4063     -304.54997      1512.6775      5082.8763
    245000   1.0242013      1.0349132      7.5583555     -2643.5828     -4181.421       1537.8382     -4181.421      -5484.5403     -301.31167      1604.431       5727.7597
    246000   1.0043818      0.99640289     7.5091264     -2652.1553     -4160.2345      1508.0792     -4160.2345     -5457.1528     -299.21393      1596.1323      5664.6629
    247000   0.97393023     1.0028263      7.0287299     -2785.4114     -4247.7677      1462.3562     -4247.7677     -5456.0345     -299.20311      1507.47        4999.3382
    248000   0.96198784     0.97937758     7.07061       -2768.2005     -4212.6253      1444.4247     -4212.6253     -5431.1951     -303.11754      1521.6874      5062.9339
    249000   0.99182524     1.0005002      7.0743669     -2781.6469     -4270.8725      1489.2256     -4270.8725     -5505.3502     -300.76754      1535.2452      5053.6484
    250000   1.0305466      1.0189328      7.44539       -2672.0581     -4219.4239      1547.3657     -4219.4239     -5500.3553     -299.27231      1580.2037      5574.1681
    251000   0.98146671     0.985252       7.1028422     -2773.6474     -4247.3197      1473.6723     -4247.3197     -5461.0077     -305.15009      1518.8381      5093.1862
    252000   0.99368247     0.98878187     7.2460968     -2757.8641     -4249.8784      1492.0142     -4249.8784     -5502.4238     -302.35762      1554.903       5267.6326
    253000   1.0021365      0.99032112     7.272455      -2692.7787     -4197.4867      1504.708      -4197.4867     -5456.0361     -298.78787      1557.3372      5361.9114
    254000   0.98701607     0.9885039      7.0922894     -2757.1649     -4239.1696      1482.0046     -4239.1696     -5461.3578     -297.32265      1519.5109      5097.9807
    255000   1.0228199      0.99638283     7.44334       -2618.2575     -4154.0217      1535.7641     -4154.0217     -5443.0851     -299.07219      1588.1356      5625.6982
    256000   1.0004641      1.0099711      7.1847451     -2704.3987     -4206.5956      1502.1968     -4206.5956     -5449.5228     -299.61752      1542.5447      5253.1473
    257000   1.0205316      1.0303031      7.5750276     -2622.2062     -4154.5345      1532.3283     -4154.5345     -5449.2689     -304.66431      1599.3987      5767.6015
    258000   1.0054282      1.0036112      7.7004167     -2643.5861     -4153.2365      1509.6504     -4153.2365     -5479.9907     -301.87092      1628.6251      5885.0979
    259000   1.0255562      1.0020715      7.5996696     -2646.275      -4186.1476      1539.8726     -4186.1476     -5505.9954     -299.26766      1619.1155      5770.8253
    260000   1.0098907      1.0127242      7.7599849     -2559.5774     -4075.9283      1516.3509     -4075.9283     -5412.1847     -300.70143      1636.9578      6035.082
    261000   1.0130554      1.0029025      7.5825321     -2686.8276     -4207.9303      1521.1027     -4207.9303     -5522.3091     -302.59756      1616.9763      5711.2919
    262000   1.005254       1.0150016      7.2156181     -2710.2545     -4219.6433      1509.3888     -4219.6433     -5459.6178     -298.75555      1538.73        5281.4853
    263000   1.0100657      0.98783384     7.29645       -2699.2982     -4215.9119      1516.6137     -4215.9119     -5475.6599     -299.70574      1559.4537      5381.9678
    264000   0.99457401     1.0096342      7.2305699     -2665.436      -4158.7888      1493.3529     -4158.7888     -5402.9653     -301.28748      1545.4639      5342.8638
    265000   1.0316097      0.99812263     7.4173774     -2655.486      -4204.4479      1548.9619     -4204.4479     -5480.1058     -300.55415      1576.212       5559.7145
    266000   0.9888384      0.99813381     7.288542      -2687.7406     -4172.4815      1484.7409     -4172.4815     -5442.5575     -304.04581      1574.1218      5384.7668
    267000   1.0449786      0.99818316     7.4076819     -2584.2843     -4153.3197      1569.0354     -4153.3197     -5420.9454     -297.6104       1565.2362      5620.1779
    268000   1.038173       1.0225502      7.4387878     -2594.1312     -4152.948       1558.8167     -4152.948      -5423.4334     -294.75617      1565.2416      5644.7827
    269000   0.98078652     0.97909893     7.5072105     -2667.0357     -4139.6867      1472.651      -4139.6867     -5428.3007     -297.34302      1585.957       5647.6605
    270000   0.99451363     0.99473562     7.4153727     -2692.0175     -4185.2797      1493.2622     -4185.2797     -5464.1275     -293.83484      1572.6827      5520.9628
    271000   1.0214302      1.0017783      7.6712744     -2590.6522     -4124.3296      1533.6774     -4124.3296     -5451.2501     -298.24751      1625.1681      5905.7549
    272000   1.0254455      1.0191708      7.205643      -2692.0691     -4231.7756      1539.7065     -4231.7756     -5464.6103     -303.08806      1535.9228      5288.6226
    273000   0.98954657     0.98603654     7.3706553     -2709.2479     -4195.052       1485.8042     -4195.052      -5470.8742     -301.13107      1576.9532      5454.2051
    274000   0.99278909     0.98643406     7.4428726     -2648.461      -4139.1338      1490.6728     -4139.1338     -5422.3771     -301.88419      1585.1275      5594.9771
    275000   0.98949612     1.0000462      7.4017623     -2704.8775     -4190.606       1485.7284     -4190.606      -5475.1097     -297.07348      1581.5772      5493.0284
    276000   0.99438063     1.0065169      7.3565886     -2623.4232     -4116.4857      1493.0625     -4116.4857     -5369.4513     -301.09934      1554.0649      5524.45
    277000   1.0304202      1.0360227      7.2850787     -2670.1124     -4217.2883      1547.1759     -4217.2883     -5464.1523     -302.93426      1549.7983      5398.5593
    278000   0.97440301     0.97796197     7.2304737     -2702.8292     -4165.8953      1463.0661     -4165.8953     -5410.5071     -297.15473      1541.7665      5305.364
    279000   0.98330305     0.99597483     7.1586376     -2703.3747     -4179.8042      1476.4295     -4179.8042     -5413.3269     -299.15766      1532.6803      5225.2556
    280000   0.97591056     1.0045911      7.5703724     -2682.1052     -4147.4349      1465.3297     -4147.4349     -5453.2658     -297.86277      1603.6937      5702.5467
    281000   1.0074352      0.99308819     7.5106781     -2675.0942     -4187.7582      1512.664      -4187.7582     -5494.267      -298.2443       1604.753       5643.4425
    282000   0.98976805     0.98623747     7.1800224     -2724.5045     -4210.6412      1486.1367     -4210.6412     -5441.4165     -303.5052       1534.2805      5227.8109
    283000   1.0291864      1.0095463      7.4042034     -2635.4528     -4180.7762      1545.3234     -4180.7762     -5458.3839     -295.36189      1572.9696      5565.1568
    284000   0.96915761     0.99696821     7.4814161     -2717.0756     -4172.2657      1455.1902     -4172.2657     -5469.5986     -299.01679      1596.3497      5569.0518
    285000   1.0008046      1.0179498      7.2925817     -2695.3099     -4198.018       1502.7081     -4198.018      -5447.5778     -298.5969       1548.1566      5381.6717
    286000   0.98236545     0.97764292     7.5676693     -2626.4708     -4101.4925      1475.0217     -4101.4925     -5401.1945     -303.01655      1602.7185      5755.1873
    287000   1.0483752      1.0421331      7.3468415     -2619.9224     -4194.0578      1574.1354     -4194.0578     -5448.4918     -303.56549      1557.9995      5517.1553
    288000   1.0371903      1.0061145      7.5318565     -2622.4892     -4179.8304      1557.3412     -4179.8304     -5474.4535     -304.85987      1599.483       5719.5039
    289000   1.0184294      0.99720512     7.2369355     -2620.6759     -4149.8476      1529.1718     -4149.8476     -5394.7619     -296.0419       1540.9561      5394.6742
    290000   0.97445079     0.97507433     6.9275435     -2860.9499     -4324.0877      1463.1379     -4324.0877     -5526.9539     -297.99607      1500.8623      4811.7296
    291000   1.0068276      0.99873167     7.2815116     -2706.2392     -4217.9908      1511.7517     -4217.9908     -5478.0253     -296.09909      1556.1335      5358.4817
    292000   1.0028679      0.99074286     7.2201374     -2692.8014     -4198.6076      1505.8062     -4198.6076     -5453.069      -294.91023      1549.3716      5303.9437
    293000   0.99867033     1.0025993      7.3609631     -2609.681      -4109.1845      1499.5035     -4109.1845     -5356.2588     -301.08704      1548.1614      5543.0372
    294000   1.0085849      1.0190274      7.6712235     -2604.7695     -4119.1597      1514.3902     -4119.1597     -5451.7265     -301.95936      1634.5261      5891.5812
    295000   0.99703034     1.0049051      7.3643332     -2719.0362     -4216.0773      1497.0411     -4216.0773     -5503.4843     -304.15208      1591.559       5437.4147
    296000   1.0100598      1.0202786      7.5637765     -2659.7349     -4176.3397      1516.6048     -4176.3397     -5488.3945     -295.42863      1607.4834      5717.6116
    297000   1.0044786      1.0031314      7.1615383     -2663.1839     -4171.4085      1508.2246     -4171.4085     -5389.0767     -298.62123      1516.2895      5268.6592
    298000   1.0077005      0.9901995      7.5316216     -2628.3619     -4141.4241      1513.0622     -4141.4241     -5435.4642     -300.09808      1594.1382      5713.3711
    299000   0.99197929     1.0083727      7.3632356     -2670.0429     -4159.4998      1489.4569     -4159.4998     -5432.8207     -304.56809      1577.889       5485.1923
    300000   1.0460052      1.0398496      7.2085462     -2662.1494     -4232.7262      1570.5768     -4232.7262     -5476.1863     -302.27254      1545.7326      5321.7579
    301000   0.99311669     0.99431186     7.5558705     -2716.0596     -4207.2243      1491.1647     -4207.2243     -5511.6914     -300.07664      1604.5437      5652.5306
    302000   1.0247493      1.0074257      7.6170111     -2644.0388     -4182.6999      1538.661      -4182.6999     -5505.8542     -300.48035      1623.6347      5792.2684
    303000   0.96399369     0.97087812     7.5097146     -2756.6126     -4204.0492      1447.4365     -4204.0492     -5514.6957     -302.77093      1613.4175      5560.8571
    304000   0.99682781     1.0117199      7.2435061     -2699.7514     -4196.4884      1496.7369     -4196.4884     -5433.6728     -298.85615      1536.0406      5322.876
    305000   1.0050033      1.0095571      7.160934      -2795.1593     -4304.1718      1509.0125     -4304.1718     -5542.997      -298.16269      1536.9878      5136.0144
    306000   0.9991187      0.97423056     7.4993338     -2674.7471     -4174.9238      1500.1767     -4174.9238     -5485.8663     -301.53796      1612.4805      5631.2252
    307000   1.0372359      1.0114517      7.5227652     -2620.6727     -4178.0824      1557.4097     -4178.0824     -5467.6533     -300.0234       1589.5942      5711.2513
    308000   0.98837764     0.998779       7.3012704     -2639.1112     -4123.1602      1484.049      -4123.1602     -5377.2353     -302.42869      1556.5037      5447.4937
    309000   0.99017819     1.0043688      7.3877038     -2687.0596     -4173.8122      1486.7525     -4173.8122     -5462.8062     -295.17779      1584.1718      5495.2756
    310000   0.9878294      1.0252446      7.3444203     -2693.1068     -4176.3326      1483.2258     -4176.3326     -5448.5588     -299.49101      1571.7171      5441.2893
    311000   1.0124725      0.97716671     7.1151611     -2686.1389     -4206.3663      1520.2274     -4206.3663     -5408.8593     -300.84227      1503.3352      5194.3385
    312000   0.9642138      0.97478844     7.0695002     -2784.8762     -4232.6432      1447.767      -4232.6432     -5457.8275     -297.82085      1523.0052      5045.0291
    313000   0.99166829     1.0055048      7.4276474     -2753.9762     -4242.9662      1488.9899     -4242.9662     -5523.8805     -304.62994      1585.5443      5472.599
    314000   1.0368038      1.0114731      7.2463229     -2644.3586     -4201.1194      1556.7609     -4201.1194     -5444.9002     -293.45689      1537.2376      5381.3886
    315000   1.0015616      1.0050098      7.4640617     -2668.3994     -4172.2441      1503.8448     -4172.2441     -5454.0433     -300.93699      1582.7361      5598.5069
    316000   1.0274908      1.0304551      7.4762711     -2646.0657     -4188.8431      1542.7774     -4188.8431     -5467.4027     -302.58706      1581.1467      5634.3633
    317000   1.0315739      1.0134         7.5317186     -2619.7799     -4168.6881      1548.9082     -4168.6881     -5463.1184     -302.21662      1596.6469      5722.0606
    318000   0.99809829     1.0068768      7.5961226     -2595.6151     -4094.2596      1498.6446     -4094.2596     -5396.9471     -301.07514      1603.7626      5817.5568
    319000   1.031449       1.0095971      7.6825524     -2596.5161     -4145.2368      1548.7207     -4145.2368     -5480.6846     -300.3912       1635.839       5912.382
    320000   0.98551479     0.98523797     7.58885       -2603.8741     -4083.6246      1479.7505     -4083.6246     -5384.8949     -301.27035      1602.5407      5801.2429
    321000   1.0138649      1.0141868      7.4767032     -2662.568      -4184.8862      1522.3181     -4184.8862     -5476.7039     -300.36882      1592.1865      5618.3395
    322000   0.97852326     1.0065355      7.3043313     -2762.4413     -4231.6939      1469.2527     -4231.6939     -5503.6995     -298.10148      1570.1071      5327.5538
    323000   1.0059817      1.0256348      7.3581363     -2660.8855     -4171.367       1510.4815     -4171.367      -5448.7307     -300.84331      1578.2071      5488.7019
    324000   1.0116393      0.99194567     7.6529768     -2692.4174     -4211.3939      1518.9765     -4211.3939     -5531.1906     -302.4361       1622.2328      5783.7239
    325000   1.025677       1.0018791      7.2641386     -2686.2273     -4226.2813      1540.054      -4226.2813     -5466.976      -299.92935      1540.624       5359.252
    326000   0.97470485     0.98843203     7.275744      -2714.8984     -4178.4178      1463.5193     -4178.4178     -5428.2155     -301.56043      1551.3582      5343.4344
    327000   0.99831385     0.99904255     7.4766011     -2700.05       -4199.0182      1498.9682     -4199.0182     -5504.55       -297.4231       1602.9549      5580.7444
    328000   0.98773094     0.98931047     7.3916823     -2708.1431     -4191.2211      1483.078      -4191.2211     -5475.1405     -299.45189      1583.3713      5478.5986
    329000   1.0096012      1.0184829      7.1400253     -2709.8715     -4225.7877      1515.9162     -4225.7877     -5454.4669     -302.12743      1530.8067      5198.1446
    330000   1.0215052      1.0075166      7.4593215     -2678.6742     -4212.4643      1533.7901     -4212.4643     -5497.5957     -303.13326      1588.2647      5582.982
    331000   0.96016085     0.9866779      7.5888947     -2680.6645     -4122.346       1441.6815     -4122.346      -5443.4418     -295.04627      1616.142       5724.502
    332000   0.98500585     0.99606584     7.6475037     -2663.0641     -4142.0503      1478.9863     -4142.0503     -5470.5931     -299.41586      1627.9586      5807.0154
    333000   1.0435734      1.0167835      7.3153126     -2648.903      -4215.8285      1566.9255     -4215.8285     -5466.6138     -300.98698      1551.7722      5453.2546
    334000   1.0013959      1.003555       7.6255795     -2641.4851     -4145.081       1503.596      -4145.081      -5466.2227     -298.73402      1619.8757      5804.3121
    335000   0.98091926     0.96719038     7.186671      -2707.8859     -4180.7361      1472.8503     -4180.7361     -5416.2754     -297.39045      1532.9297      5251.7932
    336000   1.031148       1.0089437      7.4044212     -2699.0894     -4247.3581      1548.2687     -4247.3581     -5523.0824     -302.97949      1578.7038      5501.7614
    337000   1.0331859      1.0029953      7.7485687     -2620.0578     -4171.3865      1551.3287     -4171.3865     -5525.2984     -301.10707      1655.019       5961.9574
    338000   0.96301759     0.98792899     7.3213983     -2710.3441     -4156.315       1445.9709     -4156.315      -5403.998      -300.00399      1547.687       5398.5537
    339000   1.0184981      1.0223486      7.5110949     -2599.1841     -4128.459       1529.2749     -4128.459      -5425.8685     -295.99693      1593.4065      5719.8143
    340000   0.96330979     0.97326725     7.1029341     -2749.4669     -4195.8766      1446.4097     -4195.8766     -5424.42       -297.76333      1526.3068      5117.4684
    341000   1.0483948      1.0169666      7.5938645     -2609.6241     -4183.7888      1574.1647     -4183.7888     -5504.443      -296.72382      1617.378       5801.0468
    342000   1.0077006      1.0134054      7.5045242     -2658.6765     -4171.739       1513.0625     -4171.739      -5469.3774     -303.9238       1601.5623      5653.0446
    343000   0.99684224     0.98586216     7.1572049     -2719.5965     -4216.3551      1496.7586     -4216.3551     -5434.0845     -299.24338      1516.9728      5207.4471
    344000   0.99042154     0.99485203     7.3230818     -2684.0647     -4171.1826      1487.1179     -4171.1826     -5428.4635     -298.5156       1555.7964      5426.6977
    345000   0.99098025     1.0068878      7.421205      -2664.2719     -4152.2287      1487.9568     -4152.2287     -5425.6429     -305.97041      1579.3846      5555.168
    346000   1.067832       1.0532253      7.5672038     -2590.9438     -4194.2936      1603.3497     -4194.2936     -5485.9213     -303.43807      1595.0658      5790.1986
    347000   1.0122459      0.98605753     7.1001043     -2732.313      -4252.2002      1519.8873     -4252.2002     -5462.2295     -301.76633      1511.7956      5131.4882
    348000   0.97399645     1.0302173      7.2702403     -2775.185      -4237.6407      1462.4557     -4237.6407     -5495.1915     -300.80347      1558.3543      5277.0522
    349000   1.0142614      1.0122441      7.6531669     -2576.0012     -4098.9147      1522.9135     -4098.9147     -5421.582      -296.95906      1619.6264      5900.3507
    350000   1.0370803      1.0261496      7.2223741     -2674.5523     -4231.7284      1557.1761     -4231.7284     -5473.1807     -301.24837      1542.7007      5324.6701
    351000   0.98899325     1.0116812      7.1417996     -2807.2415     -4292.2149      1484.9734     -4292.2149     -5535.5488     -298.76463      1542.0986      5102.7397
    352000   0.98349178     0.99013871     7.5725558     -2694.5432     -4171.2561      1476.7129     -4171.2561     -5485.6514     -296.77267      1611.1679      5692.5269
    353000   0.99166036     1.0102077      7.2364818     -2775.5343     -4264.5124      1488.978      -4264.5124     -5520.7644     -300.83202      1557.084       5239.3133
    354000   0.97641633     0.98091041     7.431755      -2709.2924     -4175.3815      1466.0891     -4175.3815     -5463.645      -295.77513      1584.0386      5521.8322
    355000   0.96272432     0.98611024     7.327996      -2797.0408     -4242.5713      1445.5306     -4242.5713     -5535.7171     -300.67437      1593.8201      5319.1644
    356000   1.0213114      1.0036939      7.5217839     -2592.5969     -4126.0959      1533.499      -4126.0959     -5419.2393     -296.80323      1589.9466      5738.2402
    357000   0.98194204     0.99211566     7.49592       -2752.7352     -4227.1212      1474.386      -4227.1212     -5536.2382     -302.4824       1611.5995      5549.4561
    358000   1.0074361      0.98256233     7.3401117     -2686.7765     -4199.4418      1512.6653     -4199.4418     -5460.3654     -301.93915      1562.8627      5442.8475
    359000   1.0374104      1.0177273      7.0415291     -2640.0862     -4197.7579      1557.6717     -4197.7579     -5391.601      -301.55382      1495.397       5158.8393
    360000   1.018412       1.0052839      7.3811782     -2679.0385     -4208.1841      1529.1456     -4208.1841     -5468.0786     -301.56191      1561.4564      5496.0692
    361000   1.0478826      1.0333504      7.5308303     -2599.4568     -4172.8525      1573.3958     -4172.8525     -5480.9044     -296.96086      1605.0128      5741.3999
    362000   1.0205547      0.98876836     7.9141652     -2561.2412     -4093.6041      1532.3629     -4093.6041     -5466.3605     -297.57723      1670.3337      6204.1823
    363000   1.041043       1.0285984      7.050773      -2644.8864     -4208.0125      1563.1261     -4208.0125     -5397.5452     -301.38576      1490.9184      5164.2773
    364000   1.0111742      1.0263209      7.4855332     -2679.8131     -4198.0912      1518.2781     -4198.0912     -5484.2759     -303.57308      1589.7578      5610.8741
    365000   1.0114851      1.0259391      7.5278889     -2678.9189     -4197.6637      1518.7448     -4197.6637     -5493.968      -298.66125      1594.9656      5658.6799
    366000   0.94139841     0.97753512     7.3850906     -2816.6434     -4230.1531      1413.5097     -4230.1531     -5530.1224     -301.88336      1601.8527      5362.7976
    367000   1.0026372      1.0098418      7.4131912     -2624.1474     -4129.6072      1505.4597     -4129.6072     -5403.3335     -299.04858      1572.7749      5586.4166
    368000   0.98657508     1.0005827      7.5837834     -2659.0823     -4140.4248      1481.3425     -4140.4248     -5463.7396     -303.74701      1627.0618      5740.4232
    369000   0.98981065     1.0028809      7.7004755     -2610.8384     -4097.0391      1486.2007     -4097.0391     -5430.7557     -300.74161      1634.4582      5917.9107
    370000   1.0065149      1.0153716      7.1615396     -2638.9281     -4150.2102      1511.2821     -4150.2102     -5365.907      -297.09582      1512.7926      5292.9165
    371000   1.0040839      0.9891926      7.8273847     -2655.7893     -4163.4214      1507.632      -4163.4214     -5516.7594     -302.78973      1656.1278      6013.5195
    372000   0.97321753     0.99134013     7.2082574     -2717.8452     -4179.1314      1461.2861     -4179.1314     -5424.4746     -300.37563      1545.7188      5265.742
    373000   0.98599201     0.9822606      7.2250166     -2735.562      -4216.029       1480.467      -4216.029      -5454.9401     -300.5834       1539.4946      5266.5873
    374000   0.99946201     1.0008558      7.1072196     -2727.2798     -4227.972       1500.6922     -4227.972      -5455.462      -297.50445      1524.9945      5144.402
    375000   1.0134848      0.99405173     7.2877043     -2694.5887     -4216.3362      1521.7474     -4216.3362     -5451.9507     -299.34871      1534.9632      5376.991
    376000   0.99974751     1.0173888      7.336608      -2658.0064     -4159.1273      1501.1209     -4159.1273     -5415.5426     -299.8218       1556.2371      5467.7371
    377000   0.96324473     0.98313219     7.4268839     -2678.4905     -4124.8025      1446.312      -4124.8025     -5412.3387     -300.98642      1588.5226      5547.2391
    378000   1.0115222      0.99410442     7.707873      -2632.0079     -4150.8085      1518.8006     -4150.8085     -5468.0429     -302.65496      1619.8894      5904.9343
    379000   1.0038207      1.013688       7.8763334     -2604.0335     -4111.2702      1507.2368     -4111.2702     -5470.1871     -301.31853      1660.2354      6119.4891
    380000   0.97315363     0.99114607     7.4389        -2784.4886     -4245.6788      1461.1902     -4245.6788     -5547.6311     -299.79058      1601.7429      5454.5495
    381000   1.0327267      1.0203576      7.2394218     -2649.8535     -4200.4926      1550.6391     -4200.4926     -5428.3209     -299.79293      1527.6212      5368.2503
    382000   1.0063997      0.97823509     7.4334143     -2687.3009     -4198.4101      1511.1092     -4198.4101     -5483.5747     -298.98901      1584.1535      5545.6615
    383000   0.98011997     1.0078567      7.6449007     -2656.3025     -4127.9526      1471.6501     -4127.9526     -5447.9521     -298.55037      1618.5499      5810.8941
    384000   0.99907579     0.98229905     7.6386446     -2681.5193     -4181.6317      1500.1123     -4181.6317     -5505.5586     -299.47392      1623.4009      5778.7482
    385000   1.0335501      1.015321       7.9827724     -2554.123      -4105.9985      1551.8755     -4105.9985     -5488.4637     -298.12858      1680.5938      6287.2872
    386000   1.040934       1.0250653      7.6975581     -2567.4828     -4130.4452      1562.9623     -4130.4452     -5433.9621     -302.24268      1605.7596      5958.0351
    387000   0.96270709     0.9738592      7.4116014     -2632.5218     -4078.0265      1445.5047     -4078.0265     -5341.9989     -301.93569      1565.9081      5576.2815
    388000   1.037803       1.0269142      7.5019559     -2664.5484     -4222.8096      1558.2612     -4222.8096     -5517.5512     -305.27306      1600.0146      5644.328
    389000   0.99279426     0.98211744     7.1820957     -2766.451      -4257.1316      1490.6806     -4257.1316     -5497.0955     -301.69684      1541.6607      5188.1606
    390000   1.007882       0.98055477     7.243731      -2621.5816     -4134.9164      1513.3348     -4134.9164     -5365.3289     -300.60778      1531.0203      5401.2949
    391000   1.0555765      1.0212864      7.3317482     -2633.1054     -4218.0535      1584.9482     -4218.0535     -5459.359      -306.5345       1547.84        5487.2556
    392000   0.96707648     0.98248388     7.751235      -2701.8645     -4153.9298      1452.0653     -4153.9298     -5504.4871     -299.69638      1650.2537      5883.1039
    393000   0.96236777     0.99155604     7.2037022     -2752.7488     -4197.744       1444.9952     -4197.744      -5446.1564     -302.26189      1550.6743      5225.7934
    394000   0.97349181     0.97777893     7.3826429     -2776.6017     -4238.2997      1461.698      -4238.2997     -5529.6196     -298.61547      1589.9354      5400.1282
    395000   0.98643007     1.003211       7.5519644     -2657.8838     -4139.0086      1481.1247     -4139.0086     -5443.7187     -297.503        1602.2131      5706.3801
    396000   1.0254101      1.0040973      7.5435594     -2658.0973     -4197.7505      1539.6532     -4197.7505     -5503.6143     -300.141        1606.0048      5696.8575
    397000   1.0359721      1.0308597      7.2621485     -2624.4771     -4179.9893      1555.5122     -4179.9893     -5431.4071     -299.42996      1550.8478      5418.798
    398000   1.0049617      1.0109788      7.721302      -2653.1998     -4162.1499      1508.95       -4162.1499     -5501.9726     -298.04543      1637.8682      5898.6158
    399000   1.0070467      1.0047791      7.6811925     -2660.9873     -4173.068       1512.0807     -4173.068      -5505.6679     -297.01618      1629.6161      5846.4047
    400000   1.0217128      1.0278478      7.2498568     -2642.5004     -4176.6021      1534.1017     -4176.6021     -5411.8142     -300.76387      1535.9759      5387.1608
    401000   0.99018247     0.99139536     7.4810932     -2712.4774     -4199.2364      1486.759      -4199.2364     -5496.8929     -301.34902      1599.0055      5573.2923
    402000   1.0069682      1.0169575      7.2403237     -2672.2729     -4184.2357      1511.9628     -4184.2357     -5418.3784     -301.00267      1535.1453      5346.8298
    403000   1.0255371      1.0162509      7.3939884     -2646.8851     -4186.729       1539.8439     -4186.729      -5452.7315     -302.14858      1568.151       5542.4108
    404000   0.97131161     0.98797889     7.65124       -2775.2953     -4233.7197      1458.4244     -4233.7197     -5582.7322     -298.45636      1647.4688      5698.9224
    405000   1.0064421      1.0028586      7.4228661     -2679.3937     -4190.5665      1511.1728     -4190.5665     -5467.5371     -303.30571      1580.2763      5541.886
    406000   0.98023796     0.97077911     7.2853998     -2735.3101     -4207.1374      1471.8273     -4207.1374     -5466.971      -302.48006      1562.3137      5333.7172
    407000   0.970724       0.99071292     7.2646767     -2754.1681     -4211.7102      1457.5421     -4211.7102     -5470.4839     -294.69197      1553.4657      5291.907
    408000   1.0108548      1.0072073      7.3591687     -2669.4935     -4187.2919      1517.7984     -4187.2919     -5448.7476     -301.72096      1563.1766      5481.2374
    409000   0.99411392     0.99206412     7.1283395     -2747.66       -4240.3221      1492.662      -4240.3221     -5474.4892     -299.54238      1533.7095      5147.4133
    410000   1.0010986      1.0066358      7.1484133     -2715.6078     -4218.7574      1503.1496     -4218.7574     -5435.3192     -301.80547      1518.3673      5201.6985
    411000   0.99185801     0.99412435     7.4612143     -2689.2232     -4178.4981      1489.2748     -4178.4981     -5478.2105     -299.90091      1599.6134      5574.5293
    412000   1.0164173      1.0230921      7.4005651     -2689.8222     -4215.9728      1526.1506     -4215.9728     -5496.3392     -304.64277      1585.0092      5506.7577
    413000   0.97904673     0.99459145     7.4723757     -2726.3851     -4196.4238      1470.0387     -4196.4238     -5507.5332     -296.74142      1607.8508      5549.7295
    414000   0.99156183     1.011203       7.498726      -2672.7975     -4161.6276      1488.8301     -4161.6276     -5464.3344     -295.08556      1597.7923      5632.5016
    415000   1.0325291      1.010097       7.6092018     -2663.2523     -4213.5947      1550.3424     -4213.5947     -5549.1915     -300.95776      1636.5546      5764.4055
    416000   0.97924529     0.99555008     7.1288186     -2726.3679     -4196.7047      1470.3368     -4196.7047     -5423.1848     -300.57712      1527.0573      5169.2361
    417000   0.98789176     0.9932572      7.1701805     -2750.9544     -4234.2739      1483.3195     -4234.2739     -5477.8444     -295.33709      1538.9076      5190.4604
    418000   0.97816886     0.99387073     7.1153007     -2738.5671     -4207.2876      1468.7205     -4207.2876     -5436.6895     -298.32         1527.7218      5142.065
    419000   1.0206861      1.0060601      7.6280115     -2666.9371     -4199.4973      1532.5602     -4199.4973     -5514.536      -300.42111      1615.4599      5781.5537
    420000   1.0119115      1.0065825      7.4655372     -2607.0897     -4126.4748      1519.3851     -4126.4748     -5405.9413     -298.17384      1577.6404      5661.4508
    421000   0.99691384     0.97225561     7.3510625     -2744.592      -4241.4581      1496.8661     -4241.4581     -5527.9568     -302.77955      1589.2782      5397.1608
    422000   1.0030982      0.99842315     7.2839103     -2695.2913     -4201.4433      1506.152      -4201.4433     -5445.8839     -301.00772      1545.4483      5372.0862
    423000   0.96927978     0.97081125     7.5010473     -2766.5579     -4221.9314      1455.3736     -4221.9314     -5532.388      -296.23933      1606.6959      5541.3123
    424000   1.0053943      0.98813931     7.3948389     -2706.3969     -4215.9965      1509.5996     -4215.9965     -5490.1826     -297.99134      1572.1775      5483.8409
    425000   1.006857       0.9987613      7.2130277     -2653.725      -4165.5208      1511.7958     -4165.5208     -5394.0014     -301.57274      1530.0534      5335.1457
    426000   0.96807498     0.98249718     7.9134051     -2667.1316     -4120.6962      1453.5646     -4120.6962     -5506.4146     -299.64164      1685.3601      6097.4501
    427000   0.98860095     0.97921248     7.4386923     -2654.2816     -4138.6659      1484.3843     -4138.6659     -5432.1585     -301.68131      1595.174       5584.5265
    428000   0.99024277     0.99849167     7.8640929     -2575.1412     -4061.9907      1486.8495     -4061.9907     -5414.4111     -302.8177       1655.2381      6134.8242
    429000   0.9943044      0.99238839     6.8783364     -2834.486      -4327.4341      1492.9481     -4327.4341     -5507.3621     -305.85835      1485.7864      4783.6936
    430000   1.0569146      1.0306593      7.2052087     -2675.601      -4262.5582      1586.9572     -4262.5582     -5493.441      -301.67499      1532.5578      5304.6097
    431000   0.99192977     1.015627       7.5363495     -2697.2961     -4186.6786      1489.3825     -4186.6786     -5499.5701     -298.17136      1611.0628      5649.6733
    432000   0.99009194     1.0127222      7.0638548     -2744.9194     -4231.5424      1486.623      -4231.5424     -5453.2855     -301.91655      1523.6596      5078.7332
    433000   1.0052637      0.99291262     7.4752759     -2680.2479     -4189.6513      1509.4034     -4189.6513     -5480.1544     -300.91776      1591.4209      5599.0788
    434000   0.99712988     1.0188019      7.3180582     -2729.9116     -4227.1021      1497.1905     -4227.1021     -5489.0946     -302.5383       1564.5308      5375.2869
    435000   1.0078452      1.0080392      7.6732682     -2633.3642     -4146.6438      1513.2796     -4146.6438     -5467.5094     -302.52806      1623.3937      5865.2512
    436000   1.017551       1.0081693      7.2693523     -2731.911      -4259.7639      1527.8528     -4259.7639     -5501.5082     -303.77216      1545.5165      5319.3426
    437000   1.0078863      1.0126302      7.2209598     -2660.8806     -4174.222       1513.3413     -4174.222      -5409.5309     -297.18003      1532.489       5336.7754
    438000   1.0022304      1.0044278      7.4268939     -2622.32       -4127.1688      1504.8489     -4127.1688     -5402.0551     -300.40868      1575.295       5603.4207
    439000   0.98777698     0.99331144     7.352035      -2693.7469     -4176.894       1483.1471     -4176.894      -5447.649      -300.74855      1571.5035      5449.0829
    440000   1.0017835      0.99938688     7.2523671     -2692.6026     -4196.7806      1504.178      -4196.7806     -5447.8712     -300.61811      1551.7087      5339.8389
    441000   1.0189719      0.98936342     7.0871796     -2690.2521     -4220.2384      1529.9863     -4220.2384     -5438.2087     -297.81172      1515.782       5159.2342
    442000   1.0163547      1.0118314      7.4708125     -2557.8663     -4083.9228      1526.0565     -4083.9228     -5346.3118     -301.37922      1563.7682      5716.517
    443000   0.99536636     0.99132036     7.3977145     -2670.355      -4164.8976      1494.5426     -4164.8976     -5449.4842     -298.14208      1582.7287      5523.0677
    444000   1.0094263      0.99837084     7.416289      -2664.3852     -4180.0387      1515.6536     -4180.0387     -5463.9249     -302.56181      1586.448       5549.6099
    445000   0.98270998     1.0075678      7.178209      -2771.5788     -4247.1179      1475.539      -4247.1179     -5494.5889     -298.43281      1545.9038      5178.728
    446000   0.99712092     0.97376445     7.2900526     -2681.8878     -4179.0649      1497.1771     -4179.0649     -5432.501      -300.29354      1553.7297      5392.2927
    447000   1.0499047      1.0536457      7.2343456     -2707.9429     -4284.3749      1576.432      -4284.3749     -5527.9733     -304.49789      1548.0963      5304.5387
    448000   0.94671255     0.98091477     6.7756675     -2869.2851     -4290.774       1421.4889     -4290.774      -5467.469      -304.20549      1480.9004      4635.1823
    449000   0.9847342      0.98265377     7.5065848     -2672.3802     -4150.9586      1478.5784     -4150.9586     -5452.1811     -303.01628      1604.2388      5641.623
    450000   0.96916763     0.97068857     7.2167606     -2800.3555     -4255.5607      1455.2052     -4255.5607     -5520.9252     -296.24063      1561.6052      5192.6496
    451000   0.98577241     0.99495645     7.456099      -2668.8334     -4148.9707      1480.1373     -4148.9707     -5425.5517     -303.30987      1579.8909      5589.2537
    452000   1.0134568      1.0024345      7.6037683     -2677.4257     -4199.131       1521.7054     -4199.131      -5510.2278     -298.94988      1610.0467      5744.2143
    453000   0.99477971     1.0058652      7.534897      -2698.4043     -4192.066       1493.6617     -4192.066      -5497.653      -300.57135      1606.1583      5646.9565
    454000   1.0148759      0.98226906     7.3612338     -2635.2079     -4159.044       1523.8361     -4159.044      -5417.9398     -305.38987      1564.2857      5517.8102
    455000   1.013907       1.0112722      7.4640804     -2660.5296     -4182.911       1522.3814     -4182.911      -5474.1435     -298.22466      1589.4572      5606.3974
    456000   0.96981494     0.9783445      7.5314312     -2636.2208     -4092.3979      1456.1771     -4092.3979     -5400.6198     -303.34741      1611.5693      5705.3013
    457000   1.0164698      0.9960542      7.5265708     -2581.6564     -4107.8858      1526.2294     -4107.8858     -5419.9467     -293.33306      1605.3939      5754.4826
    458000   1.0093995      1.0142379      7.2251007     -2700.0683     -4215.6816      1515.6133     -4215.6816     -5463.1127     -300.46823      1547.8994      5302.1741
    459000   1.0297977      1.0331744      7.557131      -2592.3741     -4138.6154      1546.2413     -4138.6154     -5444.3058     -299.35628      1605.0467      5777.6121
    460000   1.000269       0.98844093     7.5703154     -2615.0983     -4117.0023      1501.9039     -4117.0023     -5425.1414     -300.38702      1608.5261      5769.4904
    461000   0.9804767      0.98889934     7.0420034     -2780.6171     -4252.8029      1472.1858     -4252.8029     -5470.1722     -299.09089      1516.4601      5018.8337
    462000   0.99379767     1.0117784      7.1236997     -2779.4288     -4271.616       1492.1872     -4271.616      -5501.8613     -303.66665      1533.912       5110.5057
    463000   0.99749829     0.99596725     7.2861042     -2684.7614     -4182.5051      1497.7437     -4182.5051     -5429.597      -301.29925      1548.3911      5385.046
    464000   0.96842635     0.95773352     7.5453872     -2670.3713     -4124.4635      1454.0922     -4124.4635     -5413.7948     -303.73795      1593.0693      5686.608
    465000   1.0021635      0.98964574     7.378109      -2688.4021     -4193.1506      1504.7485     -4193.1506     -5464.7729     -299.47744      1571.0997      5483.3064
    466000   0.99223982     1.0061179      7.3035135     -2680.0337     -4169.8817      1489.8481     -4169.8817     -5429.1887     -299.1756       1558.4826      5409.0557
    467000   1.0178452      1.0061222      7.3043945     -2641.0074     -4169.302       1528.2946     -4169.302      -5429.5358     -301.14562      1561.3794      5449.0577
    468000   0.96737233     0.99171253     7.9001633     -2651.941      -4104.4505      1452.5096     -4104.4505     -5488.7128     -298.51538      1682.7776      6097.9746
    469000   1.0223913      1.0084607      7.4879299     -2689.3898     -4224.5103      1535.1205     -4224.5103     -5513.6415     -299.29332      1588.4245      5603.9521
    470000   0.98844272     0.99473793     7.5302679     -2689.7947     -4173.9414      1484.1467     -4173.9414     -5487.564      -298.05195      1611.6745      5650.439
    471000   1.0148558      0.99002893     7.4953547     -2710.7842     -4234.5901      1523.8059     -4234.5901     -5526.4774     -301.75964      1593.6469      5590.781
    472000   0.9884472      0.99800575     7.792857      -2709.942      -4194.0955      1484.1535     -4194.0955     -5558.8362     -301.63965      1666.3803      5921.1252
    473000   1.0053515      1.0156593      7.4981528     -2662.6466     -4172.1819      1509.5353     -4172.1819     -5459.9613     -300.61992      1588.3993      5642.0177
    474000   1.0375753      1.0308283      7.457845      -2668.5894     -4226.5087      1557.9193     -4226.5087     -5511.5886     -301.21004      1586.2899      5591.4315
    475000   0.97646831     0.97819716     7.1672027     -2755.6945     -4221.8616      1466.1672     -4221.8616     -5467.5657     -302.62304      1548.3271      5182.4223
    476000   1.0239137      1.0094111      7.5758606     -2634.8575     -4172.2639      1537.4064     -4172.2639     -5489.4338     -302.10007      1619.2699      5755.8729
    477000   0.99514331     0.99367304     7.388463      -2667.4499     -4161.6576      1494.2077     -4161.6576     -5420.5646     -296.60078      1555.5078      5515.7261
    478000   0.97321405     0.97945809     7.3450753     -2777.9598     -4239.2407      1461.2809     -4239.2407     -5508.8872     -300.02137      1569.6679      5357.1617
    479000   0.95152763     0.99390437     7.2752538     -2807.1931     -4235.9118      1428.7187     -4235.9118     -5505.455      -299.39268      1568.9359      5250.5969
    480000   1.0304097      1.0091392      7.6843993     -2613.2187     -4160.3789      1547.1602     -4160.3789     -5496.2642     -300.78152      1636.6668      5897.725
    481000   0.97052549     0.980293       7.4564877     -2726.3683     -4183.6123      1457.244      -4183.6123     -5477.7672     -301.28514      1595.44        5532.1493
    482000   0.9664466      0.98663974     7.3808767     -2740.1401     -4191.2597      1451.1196     -4191.2597     -5470.1082     -296.17738      1575.0259      5434.6337
    483000   0.98584038     0.99139895     7.582146      -2695.137      -4175.3763      1480.2393     -4175.3763     -5489.5419     -299.18155      1613.3472      5702.5549
    484000   0.97950102     0.99226061     7.4146        -2771.1196     -4241.8404      1470.7208     -4241.8404     -5518.2813     -300.72121      1577.1621      5441.0048
    485000   0.97462661     0.97430925     7.2368632     -2738.3728     -4201.7747      1463.4019     -4201.7747     -5469.3364     -300.62352      1568.1852      5276.8971
    486000   1.0510912      1.0409031      7.4795854     -2669.4909     -4247.7042      1578.2134     -4247.7042     -5525.988      -302.88719      1581.1709      5614.6089
    487000   1.0266269      1.0021714      7.3679481     -2681.6576     -4223.1378      1541.4802     -4223.1378     -5495.6019     -301.78441      1574.2485      5478.797
    488000   0.99434534     0.99238398     7.7628313     -2672.8238     -4165.8334      1493.0095     -4165.8334     -5510.9863     -299.88042      1645.0334      5924.9881
    489000   0.98479544     1.0010854      7.2350477     -2733.1828     -4211.8532      1478.6703     -4211.8532     -5452.4129     -301.58779      1542.1475      5280.0764
    490000   1.0075909      1.0039358      7.4426329     -2605.0537     -4117.9513      1512.8977     -4117.9513     -5403.261      -298.71312      1584.0228      5638.119
    491000   0.9959456      0.9999526      7.2852778     -2674.2488     -4169.6611      1495.4123     -4169.6611     -5420.5894     -302.01338      1552.9416      5394.6433
    492000   1.04075        1.0476929      7.3328936     -2649.8868     -4212.573       1562.6862     -4212.573      -5475.1751     -295.35796      1557.96        5471.7427
    493000   1.0275647      1.0149379      7.3926007     -2647.5897     -4190.478       1542.8884     -4190.478      -5443.4962     -301.54536      1554.5635      5540.1692
    494000   1.0142303      1.0153752      7.5468889     -2707.0442     -4229.911       1522.8668     -4229.911      -5530.3308     -304.18858      1604.6084      5651.5983
    495000   1.0104126      1.0166112      7.5492358     -2606.7349     -4123.8695      1517.1346     -4123.8695     -5424.1925     -296.29283      1596.6159      5754.5069
    496000   1.0034366      0.99731446     7.2571684     -2668.76       -4175.42        1506.66       -4175.42       -5435.0454     -298.93992      1558.5653      5368.9993
    497000   1.0276977      1.0040002      7.3746866     -2671.2693     -4214.3574      1543.0881     -4214.3574     -5484.5235     -303.22488      1573.391       5496.6486
    498000   1.0102182      1.0213488      7.2994089     -2715.3657     -4232.2084      1516.8427     -4232.2084     -5485.2457     -302.36218      1555.3995      5369.1775
    499000   0.97154375     0.97560824     7.6328665     -2691.9988     -4150.7717      1458.7729     -4150.7717     -5485.0921     -302.6726       1636.993       5761.8692
    500000   0.98193424     0.98568096     7.2623017     -2786.5015     -4260.8758      1474.3743     -4260.8758     -5524.889      -299.53481      1563.5481      5256.9432
    501000   1.0388153      1.0474443      7.2612719     -2665.98       -4225.7611      1559.7811     -4225.7611     -5467.1988     -304.43958      1545.8773      5376.3241
    502000   0.98690528     0.98854814     7.219217      -2740.8514     -4222.6897      1481.8383     -4222.6897     -5473.4825     -298.30583      1549.0987      5254.8744
    503000   1.0208993      1.0046638      7.3761341     -2600.0069     -4132.8872      1532.8803     -4132.8872     -5396.1144     -299.831        1563.0581      5569.5141
    504000   1.0256403      1.0221275      7.3608159     -2671.9144     -4211.9133      1539.9989     -4211.9133     -5487.3198     -299.62217      1575.0287      5480.6409
    505000   0.94263557     0.98067001     7.5307964     -2772.3331     -4187.7004      1415.3673     -4187.7004     -5501.5611     -299.22681      1613.0875      5568.486
    506000   0.99406262     0.99737335     7.2836004     -2792.0237     -4284.6087      1492.585      -4284.6087     -5545.233      -299.43462      1560.0589      5275.0107
    507000   1.0233301      1.028955       7.3497243     -2710.1678     -4246.6979      1536.5301     -4246.6979     -5521.009      -303.73253      1578.0436      5430.1028
    508000   0.97957588     0.97277659     7.2012906     -2735.2985     -4206.1317      1470.8332     -4206.1317     -5460.316      -301.37168      1555.556       5240.5727
    509000   0.99603373     1.0172594      7.4149394     -2693.7631     -4189.3077      1495.5446     -4189.3077     -5475.1895     -298.45975      1584.3415      5518.7372
    510000   0.98183898     0.98479907     7.1898223     -2776.0344     -4250.2656      1474.2312     -4250.2656     -5489.4727     -300.62951      1539.8366      5187.1349
    511000   1.0040868      0.99933688     7.2982834     -2718.2275     -4225.8639      1507.6364     -4225.8639     -5480.2178     -299.67853      1554.0324      5365.0691
    512000   1.0159753      0.98826359     7.4551188     -2601.7455     -4127.2324      1525.4869     -4127.2324     -5418.5613     -301.64075      1592.9696      5655.256
    513000   1.0163839      0.99763233     7.494026      -2649.4856     -4175.586       1526.1004     -4175.586      -5476.3059     -301.43245      1602.1523      5650.608
    514000   0.97203103     0.99851253     7.1775103     -2751.2017     -4210.7063      1459.5046     -4210.7063     -5446.7466     -297.96922      1534.0096      5198.3313
    515000   0.96611368     1.0151278      7.3691396     -2693.2883     -4143.908       1450.6197     -4143.908      -5420.285      -303.91182      1580.2889      5468.4859
    516000   1.0081798      1.0159189      7.6078909     -2616.2947     -4130.0766      1513.782      -4130.0766     -5442.9288     -300.9879       1613.8401      5809.9113
    517000   1.0156488      1.0140302      7.3980836     -2628.9115     -4153.9082      1524.9967     -4153.9082     -5414.3303     -302.72145      1563.1436      5564.92
    518000   0.95897098     0.96966392     7.636772      -2728.1132     -4168.0081      1439.8949     -4168.0081     -5503.193      -296.63403      1631.8189      5730.0803
    519000   1.0072319      1.0194114      7.72366       -2638.3464     -4150.7051      1512.3588     -4150.7051     -5478.4179     -304.28096      1631.9937      5916.081
    520000   0.99634568     1.0050465      7.481757      -2635.7633     -4131.7764      1496.013      -4131.7764     -5414.416      -299.33573      1581.9754      5650.7415
    521000   0.9870178      1.0085215      7.462968      -2708.3032     -4190.3104      1482.0072     -4190.3104     -5476.6831     -300.75199      1587.1246      5557.3917
    522000   1.0090996      1.0064116      7.4235584     -2680.2921     -4195.4551      1515.163      -4195.4551     -5482.1919     -299.7307       1586.4674      5541.7543
    523000   1.0009434      1.0197642      7.4041644     -2790.6615     -4293.578       1502.9165     -4293.578      -5582.1302     -300.45714      1589.0093      5409.9049
    524000   1.0070712      0.98789503     7.5998621     -2634.9667     -4147.0841      1512.1174     -4147.0841     -5444.9279     -304.65739      1602.5012      5782.3468
    525000   0.96027789     0.99104968     7.196225      -2798.8193     -4240.6765      1441.8572     -4240.6765     -5488.6502     -298.21208      1546.1857      5171.4414
    526000   1.025069       0.99634517     7.5474367     -2656.192      -4195.3331      1539.1411     -4195.3331     -5503.2127     -296.87983      1604.7594      5703.0572
    527000   1.0185672      1.0092972      7.3392776     -2599.3691     -4128.7477      1529.3786     -4128.7477     -5377.4694     -302.3269       1551.0487      5529.3311
    528000   1.0224058      1.0164356      7.5191153     -2612.2188     -4147.3611      1535.1423     -4147.3611     -5432.6362     -301.83211      1587.1071      5715.6627
    529000   0.97723284     0.987271       7.3552696     -2659.5781     -4126.8932      1467.3151     -4126.8932     -5387.6858     -299.39034      1560.183       5486.8343
    530000   0.97521203     0.99767585     7.5864324     -2684.5903     -4148.8712      1464.2809     -4148.8712     -5468.5633     -303.91362      1623.6057      5717.849
    531000   1.004037       1.0023391      7.7741311     -2537.8153     -4045.3768      1507.5615     -4045.3768     -5393.9307     -297.31207      1645.866       6072.5119
    532000   0.97694966     0.97292643     7.8173826     -2656.1859     -4123.0758      1466.8899     -4123.0758     -5474.2274     -301.71969      1652.8713      6002.0449
    533000   1.0269736      0.99780847     7.3726357     -2702.3322     -4244.3331      1542.0009     -4244.3331     -5513.6087     -301.46736      1570.7429      5463.3142
    534000   1.001471       1.022504       7.3672678     -2746.4611     -4250.1697      1503.7087     -4250.1697     -5529.7253     -299.259        1578.8145      5413.2401
    535000   1.0103165      0.98355055     7.3231301     -2675.9356     -4192.9259      1516.9903     -4192.9259     -5451.6031     -298.89806      1557.5752      5434.8803
    536000   0.99477831     0.99169327     7.6595611     -2747.4767     -4241.1364      1493.6596     -4241.1364     -5577.9741     -304.19673      1641.0345      5735.9571
    537000   0.96172048     0.97577034     7.184984      -2774.1847     -4218.208       1444.0233     -4218.208      -5457.7787     -302.35795      1541.9287      5183.6259
    538000   1.026601       1.0048038      7.3962616     -2690.8488     -4232.2903      1541.4415     -4232.2903     -5522.1369     -299.98891      1589.8355      5500.9647
    539000   1.0082909      1.02204        7.3397992     -2721.9947     -4235.9434      1513.9487     -4235.9434     -5509.667      -303.83432      1577.5579      5407.2833
    540000   1.0172939      1.0386772      7.1257805     -2713.7965     -4241.2633      1527.4668     -4241.2633     -5466.0503     -298.33622      1523.1233      5178.4427
    541000   1.0856974      1.0030318      7.4340396     -2616.7641     -4246.9387      1630.1746     -4246.9387     -5511.1424     -303.86047      1568.0642      5616.8908
    542000   0.99713736     1.0112133      7.3276047     -2773.4941     -4270.6958      1497.2017     -4270.6958     -5546.1741     -300.62587      1576.1041      5342.2776
    543000   1.0041361      1.0171569      7.2819352     -2693.5511     -4201.2615      1507.7104     -4201.2615     -5452.7919     -301.10689      1552.6373      5371.6389
    544000   0.96842302     0.97462008     7.3898574     -2711.7025     -4165.7896      1454.0872     -4165.7896     -5461.9027     -302.78392      1598.897       5473.018
    545000   0.98157526     1.0201988      7.0515004     -2738.7086     -4212.5438      1473.8353     -4212.5438     -5435.8206     -296.43775      1519.7146      5071.2607
    546000   0.97695765     0.98460812     7.1592322     -2724.4382     -4191.3401      1466.9019     -4191.3401     -5436.8997     -292.58978      1538.1494      5204.8508
    547000   0.99180779     0.99322711     7.5430762     -2690.6389     -4179.8383      1489.1994     -4179.8383     -5482.2178     -303.74532      1606.1248      5663.7808
    548000   0.98549871     1.025678       7.1563073     -2736.126      -4215.8523      1479.7263     -4215.8523     -5448.7375     -301.14815      1534.0333      5189.9233
    549000   0.97254791     1.0005067      7.6005927     -2694.7577     -4155.0383      1460.2807     -4155.0383     -5467.6791     -302.23925      1614.8801      5723.3651
    550000   0.9339318      0.94917917     7.3001655     -2747.368      -4149.6666      1402.2986     -4149.6666     -5418.9142     -294.77122      1564.0188      5338.0131
    551000   1.0383866      1.0170682      7.5976296     -2668.095      -4227.2325      1559.1375     -4227.2325     -5535.7163     -297.08888      1605.5726      5746.7459
    552000   1.0138908      0.98471663     7.5894666     -2622.6685     -4145.0255      1522.357      -4145.0255     -5464.2468     -296.4672       1615.6886      5783.1314
    553000   1.0072602      0.99870713     7.0589417     -2666.2503     -4178.6515      1512.4013     -4178.6515     -5355.8458     -299.11847      1476.3127      5151.9607
    554000   1.0251016      1.0124105      7.2625921     -2634.667      -4173.8571      1539.1901     -4173.8571     -5405.4681     -301.96469      1533.5757      5409.0994
    555000   0.99760027     1.0115048      7.3723285     -2623.4745     -4121.3713      1497.8968     -4121.3713     -5378.5417     -295.46349      1552.6339      5541.8316
    556000   0.98259056     0.98229732     7.3956508     -2688.7112     -4164.0709      1475.3597     -4164.0709     -5443.366      -295.75046      1575.0456      5502.4258
    557000   1.0209426      1.0298134      7.2750266     -2697.7165     -4230.6618      1532.9453     -4230.6618     -5488.5219     -302.37113      1560.2312      5359.8218
    558000   0.98324774     1.0110012      7.1046155     -2677.2968     -4153.6432      1476.3465     -4153.6432     -5359.781      -300.51708      1506.6548      5191.5008
    559000   0.98905933     1.0001758      7.0791291     -2726.028      -4211.1006      1485.0726     -4211.1006     -5435.0393     -301.71511      1525.6538      5114.5418
    560000   0.99274453     1.0027026      7.2348269     -2649.535      -4140.141       1490.6059     -4140.141      -5383.4419     -301.03787      1544.3389      5363.4796
    561000   1.0273597      0.98816432     7.4663512     -2625.5411     -4168.1217      1542.5805     -4168.1217     -5449.4946     -301.90598      1583.2789      5643.901
    562000   0.97952692     0.96642851     7.0652776     -2760.9689     -4231.7286      1470.7597     -4231.7286     -5444.6328     -298.46201      1511.3662      5064.2595
    563000   0.98341803     0.98019023     7.1528961     -2704.5483     -4181.1505      1476.6022     -4181.1505     -5394.9911     -301.07478      1514.9154      5217.7229
    564000   1.0284994      0.99280014     7.6477465     -2606.2267     -4150.5185      1544.2918     -4150.5185     -5465.4464     -299.06689      1613.9948      5864.1218
    565000   0.99367675     0.97692482     7.1730822     -2755.6386     -4247.6442      1492.0056     -4247.6442     -5492.4182     -297.3663       1542.1403      5188.9901
    566000   0.97042702     0.99909923     7.050969      -2752.2581     -4209.3543      1457.0962     -4209.3543     -5416.0881     -297.80064      1504.5345      5057.1227
    567000   0.99503288     1.0098451      7.2915757     -2639.5887     -4133.6306      1494.0419     -4133.6306     -5376.2701     -296.91856      1539.558       5436.2787
    568000   1.0468953      1.0129402      7.3768818     -2649.1499     -4221.0632      1571.9133     -4221.0632     -5496.4336     -305.08599      1580.4564      5521.1993
    569000   1.019653       1.0086528      7.6983693     -2638.7646     -4169.7737      1531.009      -4169.7737     -5518.2368     -297.5473       1646.0105      5887.6517
    570000   1.0176699      1.0012247      7.3922878     -2670.4433     -4198.4746      1528.0313     -4198.4746     -5478.8564     -298.41619      1578.798       5516.9689
    571000   1.0062213      1.025423       7.2564432     -2653.843      -4164.6843      1510.8412     -4164.6843     -5408.3902     -302.02035      1545.7263      5383.113
    572000   0.99246483     0.98864736     7.1912118     -2789.7318     -4279.9178      1490.1859     -4279.9178     -5523.1236     -303.05249      1546.2583      5174.9765
    573000   1.0116963      0.99916683     7.3155032     -2689.8849     -4208.947       1519.0621     -4208.947      -5456.5428     -301.14973      1548.7456      5412.4837
    574000   1.0258761      1.0179313      7.4614679     -2685.0796     -4225.4327      1540.353      -4225.4327     -5526.2937     -301.39759      1602.2586      5578.9539
    575000   0.97997315     0.98404587     7.4558246     -2723.1869     -4194.6166      1471.4297     -4194.6166     -5491.4323     -299.96777      1596.7835      5534.5964
    576000   1.0058638      1.0038001      7.2723068     -2652.3002     -4162.6046      1510.3044     -4162.6046     -5406.2529     -301.6888       1545.3371      5402.2258
    577000   0.99841703     1.0024906      7.3955338     -2724.974      -4224.0972      1499.1232     -4224.0972     -5517.2745     -297.83436      1591.0117      5466.0334
    578000   1.0140436      1.0184902      7.2000932     -2613.9465     -4136.533       1522.5865     -4136.533      -5362.8377     -300.63273      1526.9375      5360.5984
    579000   1.0077613      1.0106708      7.3801565     -2717.1333     -4230.2869      1513.1536     -4230.2869     -5509.4116     -301.44001      1580.5647      5456.8428
    580000   1.0172774      0.98542857     7.5237364     -2650.3826     -4177.8246      1527.442      -4177.8246     -5464.8738     -303.71849      1590.7676      5682.617
    581000   1.0100872      0.99654393     7.7076296     -2622.0558     -4138.7017      1516.6459     -4138.7017     -5494.1327     -295.30409      1650.7351      5914.6169
    582000   0.99896343     0.99986628     7.2386549     -2723.0904     -4223.034       1499.9436     -4223.034      -5481.6525     -301.00331      1559.6218      5294.1641
    583000   0.9570045      0.99091494     7.6689736     -2712.863      -4149.8053      1436.9423     -4149.8053     -5499.1699     -297.60317      1646.9678      5780.9958
    584000   1.0470928      1.020981       7.6873079     -2552.2801     -4124.49        1572.2099     -4124.49       -5432.1518     -302.64108      1610.3029      5961.885
    585000   1.0098666      1.0181174      7.5317313     -2685.6375     -4201.9523      1516.3147     -4201.9523     -5508.6997     -297.63867      1604.3861      5656.217
    586000   0.93833492     0.9485162      7.1857081     -2810.7586     -4219.6684      1408.9099     -4219.6684     -5454.3129     -305.90431      1540.5488      5147.854
    587000   1.0510393      1.0203764      7.3119461     -2622.5703     -4200.7058      1578.1354     -4200.7058     -5457.4369     -304.00246      1560.7336      5475.8586
    588000   1.0151193      1.0179088      7.0168851     -2665.3554     -4189.557       1524.2016     -4189.557      -5374.5527     -300.2036       1485.1993      5106.2754
    589000   1.0230812      0.99598687     7.3878642     -2616.5464     -4152.7028      1536.1564     -4152.7028     -5425.0518     -299.84425      1572.1932      5565.9664
    590000   0.9524143      0.97433068     7.2813578     -2814.3761     -4244.4262      1430.0501     -4244.4262     -5507.3981     -298.43434      1561.4063      5250.1744
    591000   0.99581424     1.0058792      7.3506257     -2697.8044     -4193.0195      1495.2151     -4193.0195     -5456.9985     -302.51174      1566.4908      5443.4645
    592000   1.0563333      1.0295197      7.6656625     -2625.8486     -4211.9331      1586.0844     -4211.9331     -5538.8185     -301.70104      1628.5865      5864.3429
    593000   1.0327334      1.0077094      6.9060379     -2713.6241     -4264.2733      1550.6492     -4264.2733     -5429.958      -299.79068      1465.4754      4935.2366
    594000   0.96415951     0.96543762     7.4795006     -2748.8696     -4196.5551      1447.6855     -4196.5551     -5493.8302     -301.75921      1599.0344      5535.1363
    595000   1.0057271      1.0018353      7.5078255     -2660.2552     -4170.3545      1510.0993     -4170.3545     -5458.5062     -300.56377      1588.7155      5655.1221
    596000   1.0250544      1.0503606      7.6087637     -2574.1825     -4113.3017      1539.1191     -4113.3017     -5412.5408     -299.57255      1598.8117      5852.9901
    597000   1.0111922      1.0084632      7.0749021     -2679.3206     -4197.6257      1518.3051     -4197.6257     -5394.8853     -301.43592      1498.6955      5156.5675
    598000   0.98558212     0.99357418     7.3973223     -2715.2198     -4195.0714      1479.8515     -4195.0714     -5473.9019     -299.41797      1578.2484      5477.7684
    599000   1.0123121      1.0040331      7.2918723     -2674.4272     -4194.4138      1519.9867     -4194.4138     -5459.2743     -296.07632      1560.9368      5401.7688
    600000   0.96193326     1.001388       7.4295687     -2779.9302     -4224.273       1444.3428     -4224.273      -5516.8178     -306.08997      1598.6347      5448.7729
colvars: Saving collective variables state to "equil.colvars.state".
Loop time of 5712.49 on 1 procs for 500000 steps with 1002 atoms

Performance: 37811.907 tau/day, 87.528 timesteps/s
100.0% CPU use with 1 MPI tasks x 1 OpenMP threads

MPI task timing breakdown:
Section |  min time  |  avg time  |  max time  |%varavg| %total
---------------------------------------------------------------
Pair    | 25.715     | 25.715     | 25.715     |   0.0 |  0.45
Kspace  | 5586.5     | 5586.5     | 5586.5     |   0.0 | 97.79
Neigh   | 0.063973   | 0.063973   | 0.063973   |   0.0 |  0.00
Comm    | 54.205     | 54.205     | 54.205     |   0.0 |  0.95
Output  | 0.066502   | 0.066502   | 0.066502   |   0.0 |  0.00
Modify  | 41.036     | 41.036     | 41.036     |   0.0 |  0.72
Other   |            | 4.887      |            |       |  0.09

Nlocal:           1002 ave        1002 max        1002 min
Histogram: 1 0 0 0 0 0 0 0 0 0
Nghost:           7756 ave        7756 max        7756 min
Histogram: 1 0 0 0 0 0 0 0 0 0
Neighs:              0 ave           0 max           0 min
Histogram: 1 0 0 0 0 0 0 0 0 0

Total # of neighbors = 0
Ave neighs/atom = 0
Neighbor list builds = 47037
Dangerous builds = 0

undump         1
unfix          1
unfix          2
unfix          3

#####################################################
# Production (NVT Sphere with colvars)

reset_timestep 0
fix		         1 all nve/sphere update dipole
fix            2 all langevin 1.0 1.0 1.0 214323 omega yes
fix            3 ions colvars input.prod.colvars output prod

thermo		     1000
thermo_style	 custom step temp c_tempSph press etotal pe ke epair ecoul elong evdwl enthalpy
WARNING: New thermo_style command, previous thermo_modify settings will be lost (../output.cpp:903)
thermo_modify  norm no
dump	       	 1 all custom 10000 dump.dipoleProd id type x y z q mux muy muz

timestep	     0.005
run		         500000

CITE-CITE-CITE-CITE-CITE-CITE-CITE-CITE-CITE-CITE-CITE-CITE-CITE

Your simulation uses code contributions which should be cited:

- Colvars module (Fiorin2013, plus other works listed for specific features)


% Colvars module:
% Colvars-LAMMPS interface:
% Optimal rotation via flexible fitting:
% distance colvar component:
% harmonicWalls colvar bias implementation:

@article{Fiorin2013,
  author = {Fiorin, Giacomo and Klein, Michael L.{} and H\'enin, J\'er\^ome},
  title = {Using collective variables to drive molecular dynamics simulations},
  journal = {Mol. Phys.},
  year = {2013},
  volume = {111},
  number = {22-23},
  pages = {3345--3362},
  publisher = {Taylor & Francis},
  doi = {10.1080/00268976.2013.813594},
  url = {https://doi.org/10.1080/00268976.2013.813594}
}


% ABF colvar bias implementation:
% Internal-forces free energy estimator:

@article{Henin2010,
  author = {H\'enin, J\'er\^ome and Fiorin, Giacomo and Chipot, Christophe and Klein, Michael L.},
  title = {Exploring multidimensional free energy landscapes using time-dependent biases on collective variables},
  journal = {J. Chem. Theory Comput.},
  year = {2010},
  volume = {6},
  pages = {35-47},
  number = {1},
  doi = {10.1021/ct9004432},
  pmid = {26614317},
  url = {https://doi.org/10.1021/ct9004432}
}


% LAMMPS engine:

@article{Plimpton1995,
  title = {Fast parallel algorithms for short-range molecular dynamics},
  author = {Plimpton, Steve},
  journal = {J. Comp. Phys.},
  year = {1995},
  volume = {117},
  number = {1},
  pages = {1--19},
  doi = {10.1006/jcph.1995.1039},
  url = {https://doi.org/10.1006/jcph.1995.1039}
}

CITE-CITE-CITE-CITE-CITE-CITE-CITE-CITE-CITE-CITE-CITE-CITE-CITE

EwaldDisp initialization ...
Generated 3 of 3 mixed pair_coeff terms from geometric mixing rule
  G vector = 0.55961375,   accuracy = 0.0001
Generated 3 of 3 mixed pair_coeff terms from geometric mixing rule
colvars: Creating proxy instance
colvars: ----------------------------------------------------------------------
colvars: Initializing the collective variables module, version 2022-05-24.
colvars: Please cite Fiorin et al, Mol Phys 2013:
colvars:   https://doi.org/10.1080/00268976.2013.813594
colvars: as well as all other papers listed below for individual features used.
colvars: This version was built with the C++11 standard or higher.
colvars: Using LAMMPS interface, version "2022-05-09".
colvars: ----------------------------------------------------------------------
colvars: Reading new configuration from file "input.prod.colvars":
colvars: # units = "" [default]
colvars: # indexFile = "groups.ndx"
colvars: The following index groups are currently defined:
colvars:   cation (1 atoms)
colvars:   anion (1 atoms)
colvars: # smp = on [default]
colvars: # colvarsTrajFrequency = 500
colvars: # colvarsRestartFrequency = 0 [default]
colvars: # scriptedColvarForces = off [default]
colvars: # scriptingAfterBiases = off [default]
colvars: ----------------------------------------------------------------------
colvars:   Initializing a new collective variable.
colvars:   # name = "dist"
colvars:   Initializing a new "distance" component.
colvars:     # name = "" [default]
colvars:     # componentCoeff = 1 [default]
colvars:     # componentExp = 1 [default]
colvars:     # period = 0 [default]
colvars:     # wrapAround = 0 [default]
colvars:     # forceNoPBC = off [default]
colvars:     # scalable = on [default]
colvars:       Initializing atom group "group1".
colvars:       # name = "" [default]
colvars:       # centerToOrigin = off [default]
colvars:       # centerToReference = off [default]
colvars:       # rotateToReference = off [default]
colvars:       # atomsOfGroup = "" [default]
colvars:       # indexGroup = "cation"
colvars:       # psfSegID =  [default]
colvars:       # atomsFile = "" [default]
colvars:       # dummyAtom = ( 0 , 0 , 0 ) [default]
colvars:       # enableFitGradients = on [default]
colvars:       # printAtomIDs = off [default]
colvars:       Atom group "group1" defined with 1 atoms requested.
colvars:       Initializing atom group "group2".
colvars:       # name = "" [default]
colvars:       # centerToOrigin = off [default]
colvars:       # centerToReference = off [default]
colvars:       # rotateToReference = off [default]
colvars:       # atomsOfGroup = "" [default]
colvars:       # indexGroup = "anion"
colvars:       # psfSegID =  [default]
colvars:       # atomsFile = "" [default]
colvars:       # dummyAtom = ( 0 , 0 , 0 ) [default]
colvars:       # enableFitGradients = on [default]
colvars:       # printAtomIDs = off [default]
colvars:       Atom group "group2" defined with 1 atoms requested.
colvars:     # oneSiteSystemForce = off [default]
colvars:     # oneSiteTotalForce = off [default]
colvars:   All components initialized.
colvars:   # timeStepFactor = 1 [default]
colvars:   # width = 0.01
colvars:   # lowerBoundary = 0.75
colvars:   # upperBoundary = 2
colvars:   # hardLowerBoundary = off [default]
colvars:   # hardUpperBoundary = off [default]
colvars:   # expandBoundaries = off [default]
colvars:   # extendedLagrangian = off [default]
colvars:   # outputValue = on [default]
colvars:   # outputVelocity = off [default]
colvars:   # outputTotalForce = off [default]
colvars:   # outputAppliedForce = off [default]
colvars:   # subtractAppliedForce = off [default]
colvars:   # runAve = off [default]
colvars:   # corrFunc = off [default]
colvars: ----------------------------------------------------------------------
colvars: Collective variables initialized, 1 in total.
colvars: ----------------------------------------------------------------------
colvars:   Initializing a new "abf" instance.
colvars:   # name = "abf_dist"
colvars:   # colvars = { dist }
colvars:   # stepZeroData = off [default]
colvars:   # outputEnergy = on
colvars:   # outputFreq = 1000
colvars:   # timeStepFactor = 1 [default]
colvars:   WARNING: ABF should not be run without a thermostat or at 0 Kelvin!
colvars:   # applyBias = on [default]
colvars:   # updateBias = on [default]
colvars:   # hideJacobian = off [default]
colvars:   Jacobian (geometric) forces will be included in reported free energy gradients.
colvars:   # fullSamples = 1000
colvars:   # inputPrefix = { equil }
colvars:   # historyFreq = 1000000
colvars:   # shared = off [default]
colvars:   # maxForce =  [default]
colvars:   # integrate = on [default]
colvars:   Reading sample count from equil.count and gradient from equil.grad
colvars:   Finished ABF setup.
colvars: ----------------------------------------------------------------------
colvars:   Initializing a new "harmonicwalls" instance.
colvars:   # name = "wall_dist"
colvars:   # colvars = { dist }
colvars:   # stepZeroData = off [default]
colvars:   # outputEnergy = off [default]
colvars:   # outputFreq = 0 [default]
colvars:   # timeStepFactor = 1 [default]
colvars:   # writeTISamples = off [default]
colvars:   # writeTIPMF = off [default]
colvars:   # forceConstant = 1 [default]
colvars:   # targetForceConstant = -1 [default]
colvars:   # lowerWalls = { 0.7 }
colvars:   # upperWalls = { 2.05 }
colvars:   # lowerWallConstant = 1
colvars:   # upperWallConstant = 1
colvars:   The lower wall force constant for colvar "dist" will be rescaled to 10000 according to the specified width (0.01).
colvars:   The upper wall force constant for colvar "dist" will be rescaled to 10000 according to the specified width (0.01).
colvars: ----------------------------------------------------------------------
colvars: Collective variables biases initialized, 2 in total.
colvars: ----------------------------------------------------------------------
colvars: Collective variables module (re)initialized.
colvars: ----------------------------------------------------------------------
colvars: The restart output state file will be "rest.colvars.state".
colvars: The final output state file will be "prod.colvars.state".
colvars: Opening trajectory file "prod.colvars.traj".
colvars: Re-initialized atom group for variable "dist":0/0. 1 atoms: total mass = 1.2767, total charge = 13.626.
colvars: Re-initialized atom group for variable "dist":0/1. 1 atoms: total mass = 3.9411, total charge = -13.626.
colvars:   Prepared sample and gradient buffers at step 0.
Per MPI rank memory allocation (min/avg/max) = 18.22 | 18.22 | 18.22 Mbytes
   Step          Temp        c_tempSph        Press          TotEng         PotEng         KinEng         E_pair         E_coul         E_long         E_vdwl        Enthalpy
         0   0.96193326     1.001388       7.4295687     -2779.9302     -4224.273       1444.3428     -4224.273      -5516.8177     -306.08997      1598.6347      5448.773
      1000   1.034866       1.0050112      6.759715      -2762.7736     -4316.6249      1553.8513     -4316.6249     -5475.1217     -299.93593      1458.4328      4724.0256
      2000   1.0035683      1.011386       7.4287856     -2669.0951     -4175.9529      1506.8578     -4175.9529     -5458.8702     -304.24366      1587.161       5558.7408
      3000   1.0398849      1.028174       7.5048697     -2608.5539     -4169.9411      1561.3872     -4169.9411     -5460.9244     -298.95506      1589.9383      5703.5497
      4000   1.0346518      1.0126856      7.5005895     -2604.6508     -4158.1805      1553.5297     -4158.1805     -5441.6345     -298.20753      1581.6616      5702.7123
      5000   1.007878       0.99572624     7.281011      -2682.4906     -4195.8194      1513.3288     -4195.8194     -5460.0541     -298.56041      1562.7951      5381.6757
      6000   1.0271049      1.0128965      7.2578756     -2660.7585     -4202.9566      1542.1981     -4202.9566     -5456.9909     -301.11694      1555.1513      5377.784
      7000   0.98932394     0.98536335     7.4382336     -2716.5767     -4202.0466      1485.4699     -4202.0466     -5488.2496     -300.62942      1586.8325      5521.7234
      8000   1.0450165      1.0203798      7.3207855     -2618.0671     -4187.1594      1569.0923     -4187.1594     -5441.1079     -302.45216      1556.4008      5490.152
      9000   1.0435494      1.0260203      7.4720696     -2583.1907     -4150.0801      1566.8894     -4150.0801     -5427.8797     -301.87641      1579.676       5692.5848
     10000   1.0049966      1.0155214      7.3117865     -2691.6404     -4200.6428      1509.0024     -4200.6428     -5456.6598     -297.45325      1553.4702      5406.6118
     11000   1.0029706      1.0100395      7.8278125     -2611.738      -4117.6985      1505.9604     -4117.6985     -5478.3931     -299.50228      1660.1969      6058.0445
     12000   1.0261062      1.0149072      7.4434342     -2680.3115     -4221.0099      1540.6985     -4221.0099     -5502.0799     -299.4341       1580.5041      5563.7486
     13000   0.9793424      1.0018159      7.0810622     -2807.455      -4277.9376      1470.4826     -4277.9376     -5516.7847     -302.93021      1541.7773      5035.2558
     14000   1.0304899      1.0164964      7.5280104     -2637.4871     -4184.7676      1547.2805     -4184.7676     -5485.1661     -298.97445      1599.373       5700.2462
     15000   0.97805115     0.98904923     7.5099337     -2708.2154     -4176.7592      1468.5438     -4176.7592     -5500.6521     -296.9158       1620.8087      5609.4969
     16000   0.99957792     1.0216037      7.2623655     -2723.5369     -4224.4031      1500.8662     -4224.4031     -5477.1529     -301.64895      1554.3988      5319.9785
     17000   1.004455       0.99799003     7.3864394     -2690.1497     -4198.339       1508.1892     -4198.339      -5476.4809     -298.89313      1577.0351      5490.7851
     18000   1.0041624      1.0224447      7.7439014     -2670.0121     -4177.7618      1507.7498     -4177.7618     -5537.0165     -294.17285      1653.4275      5906.8339
     19000   1.0048742      1.0097221      7.4414678     -2599.0566     -4107.8753      1508.8187     -4107.8753     -5387.5312     -294.94512      1574.601       5642.8256
     20000   0.97106768     0.98587266     7.0580577     -2758.4676     -4216.5257      1458.0581     -4216.5257     -5427.9708     -300.44433      1511.8894      5058.7643
     21000   0.99451832     0.98922901     7.6049676     -2705.7142     -4198.9834      1493.2693     -4198.9834     -5510.3238     -303.88309      1615.2234      5717.254
     22000   1.0365615      1.0259164      7.1969442     -2662.0865     -4218.4836      1556.3971     -4218.4836     -5461.5457     -299.42312      1542.4852      5308.9707
     23000   1.0115184      1.0101909      7.2216683     -2672.1524     -4190.9473      1518.7949     -4190.9473     -5425.4046     -301.33142      1535.7887      5326.2884
     24000   0.96606403     1.0130141      7.1888978     -2781.3119     -4231.857       1450.5451     -4231.857      -5475.5937     -303.59623      1547.3329      5180.8335
     25000   1.0259263      0.99532604     7.3803649     -2670.8671     -4211.2955      1540.4284     -4211.2955     -5482.031      -297.47068      1568.2062      5503.3398
     26000   1.015298       0.9903627      7.7873898     -2593.3679     -4117.8378      1524.47       -4117.8378     -5464.4263     -300.86688      1647.4554      6031.6442
     27000   0.96873968     0.9773853      7.5319507     -2808.1252     -4262.6878      1454.5626     -4262.6878     -5586.504      -299.10676      1622.9229      5533.9723
     28000   1.0055762      0.991159       7.1647887     -2774.1473     -4284.0199      1509.8726     -4284.0199     -5524.6243     -298.52611      1539.1305      5161.2958
     29000   1.0430178      1.0211669      7.5899664     -2622.4159     -4188.5071      1566.0912     -4188.5071     -5491.7238     -300.61801      1603.8347      5783.9376
     30000   1.0051709      1.0071287      7.3645403     -2654.4265     -4163.6907      1509.2641     -4163.6907     -5440.1338     -297.6939       1574.1371      5502.2537
     31000   1.0204928      1.0013766      7.4987102     -2638.608      -4170.878       1532.2699     -4170.878      -5458.5022     -302.42244      1590.0467      5666.6735
     32000   0.99952928     1.0258121      7.2924956     -2756.7313     -4257.5245      1500.7932     -4257.5245     -5530.777      -300.93901      1574.1915      5320.1551
     33000   1.0162034      1.0143234      7.3002951     -2706.4038     -4232.2331      1525.8293     -4232.2331     -5493.1073     -301.25595      1562.1301      5379.1209
     34000   0.9884074      1.0074646      7.6964816     -2658.3953     -4142.489       1484.0937     -4142.489      -5482.1616     -301.71222      1641.3848      5865.9303
     35000   0.99991534     0.98422057     7.4958664     -2669.0903     -4170.4632      1501.3729     -4170.4632     -5461.1142     -301.07558      1591.7266      5633.0417
     36000   0.94672285     0.97787556     7.6384392     -2745.0393     -4166.5436      1421.5044     -4166.5436     -5511.7674     -299.59467      1644.8184      5715.0008
     37000   0.98984629     1.009667       6.9732339     -2721.5216     -4207.7758      1486.2542     -4207.7758     -5406.5217     -303.36373      1502.1097      5001.7628
     38000   0.96904749     1.0056541      7.2343785     -2756.4242     -4211.449       1455.0248     -4211.449      -5468.0709     -299.44223      1556.0641      5256.0939
     39000   0.98870496     0.98269993     7.3984039     -2712.3505     -4196.891       1484.5405     -4196.891      -5471.1543     -301.12791      1575.3912      5481.8357
     40000   0.98728113     0.97617653     7.5742777     -2674.7934     -4157.196       1482.4026     -4157.196      -5476.7497     -296.99857      1616.5523      5714.1839
     41000   0.99814207     0.98941422     7.3580246     -2643.0214     -4141.7317      1498.7103     -4141.7317     -5409.6839     -299.8794       1567.8316      5506.4423
     42000   0.98550894     0.99149995     7.5440151     -2721.0935     -4200.8351      1479.7417     -4200.8351     -5509.6139     -302.16         1610.9388      5634.3661
     43000   0.99600272     0.99267117     7.4810344     -2730.0848     -4225.5829      1495.4981     -4225.5829     -5529.0326     -300.12744      1603.5771      5555.6198
     44000   0.99562302     1.0070123      7.3328227     -2732.826      -4227.7539      1494.928      -4227.7539     -5501.4333     -300.00117      1573.6805      5388.725
     45000   1.0183623      1.0117418      7.3949464     -2695.7156     -4224.7865      1529.0709     -4224.7865     -5491.1849     -301.29368      1567.692       5494.6413
     46000   1.0075587      1.0079327      7.7414466     -2607.6997     -4120.5491      1512.8494     -4120.5491     -5444.0096     -299.93086      1623.3914      5966.4274
     47000   1.0179906      0.99844674     7.1922318     -2713.4619     -4241.9748      1528.5129     -4241.9748     -5475.2008     -302.11238      1535.3384      5252.3761
     48000   0.99115135     0.98571947     7.5735883     -2778.0804     -4266.2941      1488.2138     -4266.2941     -5586.4222     -298.65868      1618.7867      5610.1333
     49000   1.0071075      1.0184468      7.4562926     -2743.7686     -4255.9406      1512.1719     -4255.9406     -5561.3202     -298.79496      1604.1746      5514.5329
     50000   1.0124622      1.0260635      7.2271964     -2725.1227     -4245.3347      1520.212      -4245.3347     -5490.0508     -300.46177      1545.1779      5279.4407
     51000   1.0040481      1.0299505      7.2545911     -2642.1956     -4149.7739      1507.5783     -4149.7739     -5391.4847     -300.92039      1542.6312      5392.7091
     52000   1.0394503      1.0202384      7.3201673     -2668.0244     -4228.7591      1560.7347     -4228.7591     -5477.3545     -303.97395      1552.5693      5439.51
     53000   0.94306453     0.99274647     7.4725012     -2809.9071     -4225.9185      1416.0114     -4225.9185     -5535.9345     -302.62508      1612.6411      5466.3464
     54000   1.0033931      1.0122807      7.2804339     -2717.6181     -4224.2128      1506.5948     -4224.2128     -5479.9781     -300.92895      1556.6942      5345.9091
     55000   1.0067889      1.0057852      7.5094123     -2659.3322     -4171.0258      1511.6936     -4171.0258     -5469.0112     -301.33114      1599.3166      5657.8026
     56000   0.9749414      0.98526766     7.5123045     -2706.173      -4170.0475      1463.8745     -4170.0475     -5474.1243     -302.05023      1606.127       5614.1652
     57000   0.97758091     0.98270817     7.5617316     -2713.539      -4181.3767      1467.8377     -4181.3767     -5495.1953     -299.43802      1613.2566      5661.5426
     58000   0.98874782     0.99460759     7.4369542     -2688.9746     -4173.5795      1484.6049     -4173.5795     -5453.1984     -300.17863      1579.7976      5547.9084
     59000   1.0014266      0.98148725     7.2704907     -2670.56       -4174.2021      1503.6421     -4174.2021     -5405.5484     -301.076        1532.4224      5381.9545
     60000   0.99254854     1.0246805      7.1790661     -2723.3804     -4213.692       1490.3116     -4213.692      -5436.0325     -302.1          1524.4405      5227.8758
     61000   1.0145225      1.0029533      7.5252783     -2654.8727     -4178.1782      1523.3055     -4178.1782     -5468.8086     -302.04913      1592.6796      5679.8348
     62000   0.9972613      1.0206052      7.6425462     -2648.7861     -4146.1739      1497.3878     -4146.1739     -5479.1528     -296.79947      1629.7784      5815.8027
     63000   0.98653937     0.99875844     7.1946661     -2746.3073     -4227.5961      1481.2889     -4227.5961     -5473.3208     -306.11725      1551.8419      5222.2268
     64000   1.048172       1.0293432      7.1633293     -2669.0147     -4242.845       1573.8303     -4242.845      -5458.9347     -303.3132       1519.4029      5264.8121
     65000   0.96338226     0.96268699     7.3364569     -2795.8496     -4242.3681      1446.5185     -4242.3681     -5518.8649     -294.7844       1571.2812      5329.7265
     66000   1.0652051      1.0404837      7.5472267     -2479.5463     -4078.9518      1599.4055     -4078.9518     -5348.6861     -302.02519      1571.7595      5879.4703
     67000   0.98795863     0.96542244     7.3684434     -2762.0517     -4245.4715      1483.4199     -4245.4715     -5532.8362     -302.38758      1589.7523      5398.9515
     68000   1.0105187      1.0223163      7.3791458     -2693.3012     -4210.595       1517.2939     -4210.595      -5474.8172     -300.08304      1564.3052      5479.5556
     69000   0.96622859     0.98372663     6.9279261     -2814.5421     -4265.3343      1450.7922     -4265.3343     -5470.1017     -302.62208      1507.3895      4858.5612
     70000   0.97877788     0.98933491     7.4064033     -2720.4648     -4190.0998      1469.635      -4190.0998     -5470.5092     -299.77429      1580.1837      5482.5812
     71000   0.98126167     0.97590096     7.1345142     -2738.7701     -4212.1345      1473.3644     -4212.1345     -5436.0236     -299.21735      1523.1064      5163.1421
     72000   0.9820817      0.98525815     6.9315872     -2785.7387     -4260.3344      1474.5957     -4260.3344     -5463.2936     -302.84955      1505.8088      4891.4195
     73000   0.97456591     1.0077923      7.0081902     -2789.6576     -4252.9683      1463.3107     -4252.9683     -5459.9319     -298.93455      1505.8981      4972.3431
     74000   1.0042097      1.0047414      7.2408069     -2702.9283     -4210.7491      1507.8209     -4210.7491     -5451.4875     -301.7873       1542.5257      5316.7096
     75000   1.0070863      1.0298235      7.1266218     -2722.4818     -4234.6219      1512.14       -4234.6219     -5466.249      -304.9002       1536.5274      5170.689
     76000   1.0322032      1.0378906      7.5903884     -2568.5441     -4118.3973      1549.8531     -4118.3973     -5409.2666     -300.51325      1591.3825      5838.2768
     77000   0.97482038     0.97758223     7.7504376     -2701.8084     -4165.5012      1463.6928     -4165.5012     -5511.3705     -300.21324      1646.0825      5882.2767
     78000   1.0017176      0.98770753     7.5465404     -2636.7621     -4140.8411      1504.079      -4140.8411     -5434.5739     -297.85099      1591.5838      5721.4944
     79000   1.0091157      0.99147391     7.5728031     -2620.2427     -4135.43        1515.1873     -4135.43       -5443.9029     -296.99303      1605.4659      5767.1014
     80000   0.98932602     0.99327815     7.4850663     -2658.8551     -4144.3281      1485.473      -4144.3281     -5426.1738     -300.47447      1582.3201      5631.315
     81000   1.0222898      1.0074051      7.2713314     -2603.9396     -4138.9076      1534.9681     -4138.9076     -5373.447      -299.90913      1534.4485      5449.5061
     82000   0.98089039     0.97577158     7.5957312     -2677.2537     -4150.0606      1472.8069     -4150.0606     -5464.7699     -302.67145      1617.3808      5735.4846
     83000   1.0283524      1.012359       7.6300176     -2635.0932     -4179.1643      1544.0711     -4179.1643     -5511.6131     -299.16836      1631.6172      5815.6194
     84000   1.0067654      0.99193205     7.6388215     -2661.0493     -4172.7076      1511.6583     -4172.7076     -5501.4169     -302.47653      1631.1859      5799.4142
     85000   0.99557583     0.99022775     7.2301931     -2753.4865     -4248.3437      1494.8571     -4248.3437     -5504.5274     -296.2133       1552.397       5254.3959
     86000   1.0240112      1.0096836      7.5239128     -2682.6479     -4220.2007      1537.5528     -4220.2007     -5520.3066     -301.82391      1601.9298      5650.5471
     87000   1.0006963      1.0029688      7.2982701     -2682.2032     -4184.7487      1502.5455     -4184.7487     -5433.303      -301.28827      1549.8425      5401.0788
     88000   1.0028952      0.99135752     7.6106846     -2665.5706     -4171.4177      1505.8471     -4171.4177     -5484.213      -302.08931      1614.8847      5763.7296
     89000   1.0218824      1.0106344      7.2648453     -2729.0834     -4263.4398      1534.3564     -4263.4398     -5520.6937     -300.26002      1557.5139      5317.1785
     90000   1.0228939      1.020606       7.4771388     -2672.0899     -4207.9651      1535.8752     -4207.9651     -5486.4082     -301.54895      1579.992       5609.3001
     91000   1.0290305      1.0285959      7.4807137     -2637.6292     -4182.7184      1545.0893     -4182.7184     -5467.6361     -300.77437      1585.692       5647.7202
     92000   0.97397133     0.99052181     7.8326373     -2687.1214     -4149.5394      1462.418      -4149.5394     -5495.9972     -305.45144      1651.9093      5988.0049
     93000   1.0016056      1.006833       7.6099659     -2693.2831     -4197.1939      1503.9109     -4197.1939     -5522.0748     -300.08432      1624.9652      5735.2211
     94000   0.97811781     0.96068782     7.5450789     -2648.6657     -4117.3095      1468.6439     -4117.3095     -5421.948      -300.01175      1604.6502      5707.9721
     95000   1.0400372      1.0042417      7.5202628     -2563.3589     -4124.9748      1561.6159     -4124.9748     -5400.7437     -298.96825      1574.7371      5765.7936
     96000   1.0307764      1.0216913      7.2753881     -2614.1343     -4161.845       1547.7107     -4161.845      -5390.7473     -295.97041      1524.8727      5443.8044
     97000   0.99445175     0.99411873     7.3005826     -2657.1307     -4150.3         1493.1693     -4150.3        -5403.0575     -297.99713      1550.7546      5428.7124
     98000   0.97141551     0.98490333     7.267391      -2748.1357     -4206.7161      1458.5804     -4206.7161     -5462.3143     -301.58528      1557.1835      5300.9457
     99000   1.0039847      1.0217533      7.5399542     -2710.0396     -4217.5227      1507.4831     -4217.5227     -5518.4985     -295.54858      1596.5244      5640.9222
    100000   0.98712231     1.0054495      7.725036      -2708.167      -4190.3312      1482.1641     -4190.3312     -5532.0235     -302.11237      1643.8047      5847.7843
    101000   1.0063747      0.97652949     7.0414996     -2748.918      -4259.9897      1511.0716     -4259.9897     -5462.1285     -301.65488      1503.7937      5049.9748
    102000   1.0242822      1.01427        7.5461941     -2605.5486     -4143.5082      1537.9597     -4143.5082     -5458.9054     -294.92176      1610.3189      5752.3243
    103000   0.97768787     0.99146243     7.379828      -2707.9364     -4175.9347      1467.9983     -4175.9347     -5447.1509     -300.49803      1571.7142      5465.6758
    104000   0.96981995     0.97533632     7.4561454     -2714.8351     -4171.0198      1456.1847     -4171.0198     -5474.2554     -301.07426      1604.3099      5543.3034
    105000   1.0020586      1.0200453      7.4798542     -2749.385      -4253.976       1504.591      -4253.976      -5554.0058     -303.51345      1603.5432      5535.0124
    106000   1.0128726      1.001762       7.4243177     -2710.3212     -4231.1493      1520.8282     -4231.1493     -5526.5496     -304.04419      1599.4444      5512.5663
    107000   1.0057623      1.0056058      7.4811232     -2632.7206     -4142.8727      1510.1521     -4142.8727     -5432.643      -298.1418       1587.9121      5653.0824
    108000   0.99764055     0.99748529     7.3507337     -2727.3425     -4225.2998      1497.9573     -4225.2998     -5503.5219     -301.28517      1579.5073      5414.0461
    109000   1.0076206      1.0126843      7.4655779     -2603.2034     -4116.1457      1512.9423     -4116.1457     -5389.5219     -299.42295      1572.7991      5665.3822
    110000   1.0195304      1.0057491      7.3071386     -2642.3031     -4173.1281      1530.8249     -4173.1281     -5411.4997     -299.75605      1538.1277      5450.8012
    111000   1.0121966      1.0119778      7.1051399     -2726.9854     -4246.7985      1519.8131     -4246.7985     -5467.6599     -301.37911      1522.2405      5142.393
    112000   0.97397733     0.9772585      6.9216635     -2784.4432     -4246.8701      1462.427      -4246.8701     -5441.4769     -301.871        1496.4778      4881.7238
    113000   1.0261541      1.0082994      7.557778      -2588.5645     -4129.3349      1540.7704     -4129.3349     -5432.9594     -299.67451      1603.2991      5782.1383
    114000   0.97806116     0.98550946     7.4272272     -2806.7895     -4275.3483      1468.5588     -4275.3483     -5583.0723     -302.44341      1610.1674      5419.3204
    115000   1.0593892      1.0136786      7.671435      -2592.0189     -4182.6917      1590.6729     -4182.6917     -5507.2573     -299.74388      1624.3094      5904.5661
    116000   0.97664311     0.97632501     7.1491947     -2719.1329     -4185.5625      1466.4296     -4185.5625     -5414.952      -296.32513      1525.7146      5199.0388
    117000   0.9689506      0.98832268     7.4358299     -2740.1824     -4195.0617      1454.8793     -4195.0617     -5478.3789     -297.21136      1580.5286      5495.4555
    118000   0.99640809     0.97475071     7.5065527     -2678.4838     -4174.5906      1496.1068     -4174.5906     -5478.987      -300.07081      1604.4673      5635.4838
    119000   1.0595185      1.0198512      7.1574427     -2626.1747     -4217.0418      1590.867      -4217.0418     -5435.9074     -300.05989      1518.9256      5301.1322
    120000   1.0167715      0.99693682     7.5020734     -2678.8717     -4205.5541      1526.6824     -4205.5541     -5517.1177     -301.52974      1613.0933      5630.1349
    121000   1.0000604      1.0078497      7.3710421     -2719.5795     -4221.1703      1501.5908     -4221.1703     -5497.2211     -300.18269      1576.2336      5444.3019
    122000   0.97665829     1.0063066      7.2504992     -2790.3473     -4256.7997      1466.4524     -4256.7997     -5511.0701     -301.93803      1556.2085      5240.0255
    123000   0.9672118      0.99506859     7.0400402     -2808.8529     -4261.1215      1452.2685     -4261.1215     -5482.5405     -300.44197      1521.861       4988.4235
    124000   1.0058702      0.98123683     7.4509558     -2639.4345     -4149.7485      1510.314      -4149.7485     -5439.3631     -301.23702      1590.8516      5612.9562
    125000   1.0141439      1.0042138      7.1731993     -2753.2422     -4275.9792      1522.737      -4275.9792     -5514.9886     -300.11264      1539.122       5191.5162
    126000   0.96698538     0.9844654      7.4902233     -2740.254      -4192.1825      1451.9285     -4192.1825     -5493.8156     -300.00551      1601.6386      5555.6279
    127000   0.989048       0.98785915     7.3641763     -2743.6805     -4228.7361      1485.0556     -4228.7361     -5502.4916     -298.65474      1572.4102      5412.5966
    128000   1.0473409      1.0278701      7.5294132     -2588.2445     -4160.8268      1572.5824     -4160.8268     -5449.6277     -297.07696      1585.8778      5751.0426
    129000   1.0106514      0.99046021     7.5266442     -2688.6818     -4206.175       1517.4932     -4206.175      -5521.555      -296.65206      1612.0321      5647.5384
    130000   0.99736602     0.98295687     7.7399388     -2569.6764     -4067.2214      1497.5451     -4067.2214     -5403.9038     -295.05504      1631.7374      6002.7807
    131000   1.0207904      0.99229476     7.2874611     -2701.7365     -4234.4533      1532.7168     -4234.4533     -5487.5787     -306.10918      1559.2346      5369.5737
    132000   1.0322957      1.0081267      7.3306076     -2694.9239     -4244.9159      1549.992      -4244.9159     -5515.6392     -299.77374      1570.4971      5424.1737
    133000   0.98782855     0.98689798     7.2098355     -2752.1935     -4235.4181      1483.2246     -4235.4181     -5472.1051     -300.24038      1536.9274      5233.1417
    134000   1.0611587      1.0303173      7.4375005     -2575.652      -4168.9818      1593.3298     -4168.9818     -5453.1097     -300.34994      1584.4779      5661.8361
    135000   1.0114646      0.99402971     7.3588003     -2657.9673     -4176.6814      1518.7141     -4176.6814     -5434.8446     -303.10248      1561.2656      5492.3555
    136000   1.0046797      1.0085812      7.6640306     -2646.0825     -4154.609       1508.5266     -4154.609      -5480.9903     -300.59454      1626.9758      5842.3016
    137000   1.0193893      1.0159602      7.4968774     -2641.8857     -4172.4988      1530.6131     -4172.4988     -5464.5353     -298.35035      1590.3868      5661.366
    138000   1.0890468      1.0544511      7.7400603     -2547.1885     -4182.3924      1635.2038     -4182.3924     -5517.9938     -295.68197      1631.2834      6025.4032
    139000   1.0273818      1.026102       7.7616749     -2602.7103     -4145.324       1542.6137     -4145.324      -5490.5121     -299.89447      1645.0825      5993.8209
    140000   1.0179667      0.99929393     7.3232835     -2663.8994     -4192.3764      1528.477      -4192.3764     -5457.0694     -298.57892      1563.272       5447.0864
    141000   1.028011       1.0140708      7.4849596     -2610.8925     -4154.451       1543.5585     -4154.451      -5432.7717     -299.43337      1577.7541      5679.1595
    142000   0.92547224     0.93793981     7.1042964     -2822.114      -4211.7106      1389.5966     -4211.7106     -5448.8462     -300.07682      1537.2124      5046.3301
    143000   1.0022118      0.97877316     7.2880572     -2671.303      -4176.124       1504.821      -4176.124      -5447.1558     -301.14906      1572.1808      5400.6675
    144000   1.0123025      0.98323814     7.3346396     -2680.8576     -4200.8298      1519.9722     -4200.8298     -5468.8391     -301.37517      1569.3845      5442.7058
    145000   1.0105479      1.0093956      7.3749469     -2684.9793     -4202.3169      1517.3377     -4202.3169     -5478.4272     -297.3618       1573.4721      5483.2269
    146000   1.0187679      0.99950281     7.6562193     -2669.1614     -4198.8415      1529.6801     -4198.8415     -5517.4487     -302.29442      1620.9017      5810.5712
    147000   0.98810114     1.0190131      7.5432885     -2671.5397     -4155.1735      1483.6339     -4155.1735     -5476.8618     -300.23393      1621.9222      5683.1152
    148000   0.98972721     1.0047208      7.3081023     -2744.7751     -4230.8505      1486.0754     -4230.8505     -5496.4875     -303.454        1569.091       5349.3966
    149000   1.0073308      0.97293348     7.167975      -2673.8575     -4186.3646      1512.5071     -4186.3646     -5418.7402     -294.49903      1526.8746      5265.1146
    150000   1.0201191      1.0075801      7.293372      -2662.2752     -4193.984       1531.7088     -4193.984      -5457.9543     -300.5518       1564.5221      5415.5819
    151000   0.99973384     0.99649095     7.4115443     -2653.284      -4154.3844      1501.1004     -4154.3844     -5444.0764     -296.65911      1586.3512      5555.456
    152000   0.96658695     0.9768622      7.7254123     -2784.9657     -4236.296       1451.3303     -4236.296      -5578.7699     -304.22419      1646.6981      5771.4024
    153000   1.0159007      1.0026778      7.3845026     -2702.0628     -4227.4377      1525.3748     -4227.4377     -5504.0063     -300.807        1577.3757      5476.7269
    154000   0.97273819     0.99446849     7.3038331     -2701.7792     -4162.3456      1460.5664     -4162.3456     -5413.822      -296.93633      1548.4127      5387.664
    155000   0.9701428      0.97224799     7.234438      -2741.0656     -4197.735       1456.6694     -4197.735      -5440.5195     -299.50208      1542.2866      5271.5184
    156000   0.97895681     0.97037417     7.2900107     -2717.5496     -4187.4532      1469.9037     -4187.4532     -5455.6697     -302.8707       1571.0872      5356.5846
    157000   0.98575826     1.012445       7.1757269     -2789.7827     -4269.8987      1480.116      -4269.8987     -5525.926      -301.65251      1557.6798      5157.7751
    158000   1.0397154      1.0384046      7.6122969     -2560.7457     -4121.8783      1561.1326     -4121.8783     -5411.7885     -299.1243       1589.0344      5870.3401
    159000   0.98317173     0.98065747     7.5005509     -2688.9384     -4165.1708      1476.2324     -4165.1708     -5464.992      -303.57794      1603.3992      5618.3819
    160000   1.0167668      0.99820843     7.411992      -2669.3266     -4196.0019      1526.6753     -4196.0019     -5478.8988     -302.41439      1585.3113      5539.9092
    161000   0.99599623     1.0023728      7.7683236     -2663.8338     -4159.3221      1495.4883     -4159.3221     -5499.252      -303.82753      1643.7574      5940.0612
    162000   0.97399751     0.99417657     7.2154895     -2736.6826     -4199.1399      1462.4573     -4199.1399     -5437.422      -302.27587      1540.558       5254.9147
    163000   0.99984315     0.97501189     7.4789628     -2702.6037     -4203.8682      1501.2645     -4203.8682     -5490.4966     -301.54733      1588.1758      5580.8065
    164000   1.0253947      1.0244497      7.8061663     -2560.7118     -4100.342       1539.6302     -4100.342      -5441.7985     -297.7831       1639.2396      6085.0963
    165000   0.98145519     0.96695502     7.4279878     -2677.3553     -4151.0103      1473.655      -4151.0103     -5433.0847     -296.15527      1578.2297      5549.5969
    166000   1.0050833      1.0017664      7.3607027     -2684.8067     -4193.9392      1509.1325     -4193.9392     -5470.9191     -301.81292      1578.7928      5467.6231
    167000   0.99694728     1.0046308      7.3228362     -2717.2015     -4214.1178      1496.9163     -4214.1178     -5490.4326     -297.33922      1573.654       5393.2888
    168000   0.98988829     0.99742249     7.7535604     -2694.2439     -4180.5612      1486.3173     -4180.5612     -5530.4931     -299.98399      1649.9159      5893.2999
    169000   1.017608       1.0182549      7.7465316     -2646.0354     -4173.9738      1527.9384     -4173.9738     -5522.6754     -299.56276      1648.2643      5933.7236
    170000   1.0029815      1.0077522      7.5321609     -2669.4874     -4175.4642      1505.9768     -4175.4642     -5456.9148     -300.80018      1582.2507      5672.8429
    171000   0.96790559     0.96562625     7.7456403     -2697.5051     -4150.8153      1453.3102     -4150.8153     -5486.4908     -301.12612      1636.8017      5881.2668
    172000   0.98555834     0.99117367     7.5527027     -2700.2826     -4180.0984      1479.8159     -4180.0984     -5498.564      -292.57805      1611.0436      5664.7991
    173000   0.98832191     1.0071783      7.54766       -2708.304      -4192.2694      1483.9654     -4192.2694     -5498.7757     -300.03219      1606.5385      5651.1926
    174000   0.98122055     0.98525246     7.4459105     -2696.8269     -4170.1295      1473.3027     -4170.1295     -5447.3246     -300.46596      1577.661       5549.9759
    175000   0.98743925     1.0100919      7.3610724     -2726.5986     -4209.2387      1482.64       -4209.2387     -5471.841      -298.47779      1561.0801      5426.2407
    176000   1.0183794      1.0012273      7.5081144     -2548.9853     -4078.082       1529.0967     -4078.082      -5347.8109     -300.70588      1570.4348      5766.7121
    177000   0.97588442     0.99544534     7.3501174     -2764.3617     -4229.6522      1465.2905     -4229.6522     -5517.8476     -302.48132      1590.6767      5376.3442
    178000   1.0306839      1.0015912      7.3810502     -2697.2174     -4244.7893      1547.5719     -4244.7893     -5512.6005     -299.20551      1567.0168      5477.7485
    179000   1.031986       1.0023945      7.6726455     -2562.5673     -4112.0943      1549.527      -4112.0943     -5431.5207     -301.17392      1620.6003      5935.3584
    180000   1.0356402      1.0174868      7.5834772     -2556.5878     -4111.6017      1555.0138     -4111.6017     -5408.4695     -298.53051      1595.3983      5842.5785
    181000   1.0026495      0.98399486     7.3499757     -2712.0623     -4217.5405      1505.4782     -4217.5405     -5482.6972     -296.34         1561.4967      5428.4868
    182000   0.99205386     1.0043038      7.7621304     -2636.2705     -4125.8393      1489.5689     -4125.8393     -5470.6157     -298.60935      1643.3858      5960.7652
    183000   0.96455587     0.97768593     7.3385846     -2723.0628     -4171.3434      1448.2806     -4171.3434     -5445.9759     -298.20723      1572.8397      5404.8699
    184000   0.99217736     1.0102191      7.3237726     -2663.8742     -4153.6285      1489.7543     -4153.6285     -5408.5656     -300.66839      1555.6054      5447.6533
    185000   0.9563151      0.98632693     7.1832124     -2842.2521     -4278.1593      1435.9071     -4278.1593     -5528.5313     -303.02718      1553.3992      5113.5963
    186000   0.97074639     0.99227329     7.3652252     -2692.7386     -4150.3143      1457.5757     -4150.3143     -5412.4104     -299.58993      1561.686       5464.7002
    187000   1.0013862      0.99276413     7.301647      -2656.8339     -4160.4153      1503.5814     -4160.4153     -5397.3141     -298.57857      1535.4774      5430.1882
    188000   0.99779138     0.98234361     7.3154109     -2677.0689     -4175.2527      1498.1838     -4175.2527     -5422.4927     -300.47023      1547.7103      5425.1975
    189000   1.0113093      1.0019173      7.4776132     -2576.8157     -4095.2965      1518.4809     -4095.2965     -5384.0463     -296.5427       1585.2924      5705.0997
    190000   1.0094441      1.0065738      7.3855048     -2619.0331     -4134.7133      1515.6803     -4134.7133     -5399.0814     -300.4695       1564.8375      5560.8667
    191000   1.0215044      1.0063287      7.3287161     -2670.6501     -4204.439       1533.7889     -4204.439      -5483.1393     -300.77014      1579.4705      5446.3527
    192000   1.0029092      0.9982456      7.4825764     -2717.7866     -4223.6548      1505.8682     -4223.6548     -5524.076      -301.30239      1601.7236      5569.6259
    193000   1.0221276      0.99407495     7.8732194     -2551.3407     -4086.0653      1534.7246     -4086.0653     -5452.1682     -299.46872      1665.5716      6168.7328
    194000   1.0214062      1.0362059      7.4891678     -2699.3974     -4233.0387      1533.6413     -4233.0387     -5531.1066     -302.48902      1600.5569      5595.3154
    195000   1.0143764      1.0128204      7.4624376     -2659.7926     -4182.8788      1523.0862     -4182.8788     -5464.6531     -301.87596      1583.6503      5605.3149
    196000   1.0397455      1.0073396      7.3871855     -2631.0459     -4192.2238      1561.1779     -4192.2238     -5446.5426     -296.27347      1550.5923      5550.7153
    197000   1.0099246      1.0154732      7.5673745     -2669.2832     -4185.6849      1516.4018     -4185.6849     -5488.2441     -305.65065      1608.2098      5712.0484
    198000   1.0088165      1.0152389      7.3028728     -2703.0212     -4217.7592      1514.738      -4217.7592     -5471.4292     -302.36445      1556.0345      5385.3585
    199000   1.0001173      0.99875663     7.6629871     -2635.3326     -4137.0087      1501.6761     -4137.0087     -5461.2017     -297.59665      1621.7896      5851.8958
    200000   1.0140003      1.0100629      7.538795      -2647.0892     -4169.6107      1522.5214     -4169.6107     -5465.9755     -304.72785      1601.0926      5702.5888
    201000   0.98812407     0.9925951      7.3605319     -2722.0749     -4205.7432      1483.6683     -4205.7432     -5471.6586     -299.43919      1565.3546      5430.1658
    202000   0.98614        0.98838033     7.4972204     -2750.7069     -4231.3961      1480.6892     -4231.3961     -5547.4981     -302.0608       1618.1628      5552.9247
    203000   1.0208105      0.998205       7.5091424     -2634.8221     -4167.5691      1532.747      -4167.5691     -5452.7317     -299.09413      1584.2567      5682.0138
    204000   1.0480045      1.0316099      7.5591371     -2647.5186     -4221.0973      1573.5788     -4221.0973     -5517.8362     -300.5562       1597.2951      5724.6896
    205000   1.0333506      1.0125367      7.6028487     -2596.4913     -4148.0673      1551.576      -4148.0673     -5460.1383     -299.3961       1611.4671      5824.1301
    206000   1.0517686      0.99992316     7.5839075     -2625.7208     -4204.9514      1579.2305     -4204.9514     -5514.0091     -302.02539      1611.0831      5773.922
    207000   0.99374713     1.0008527      7.3468205     -2709.1301     -4201.2414      1492.1113     -4201.2414     -5462.277      -303.58907      1564.6247      5427.9244
    208000   0.96451032     1.010542       7.4547237     -2745.2375     -4193.4498      1448.2123     -4193.4498     -5476.5508     -303.78446      1586.8855      5511.3263
    209000   0.97325539     1.0075577      7.4876129     -2711.8578     -4173.2008      1461.343      -4173.2008     -5489.8709     -301.14846      1617.8185      5581.1328
    210000   1.041881       1.0400801      7.6865782     -2610.4129     -4174.7973      1564.3844     -4174.7973     -5504.4247     -301.06606      1630.6935      5902.9441
    211000   1.0082401      1.0103176      7.3289288     -2662.4974     -4176.3698      1513.8724     -4176.3698     -5439.7596     -302.16264      1565.5524      5454.7409
    212000   0.99550154     0.99009366     7.6657623     -2680.462      -4175.2076      1494.7456     -4175.2076     -5513.2928     -297.42329      1635.5085      5809.84
    213000   1.0048604      1.0068702      7.5772332     -2654.2153     -4163.0133      1508.7979     -4163.0133     -5460.8327     -298.79489      1596.6144      5738.0353
    214000   1.0560648      1.0479393      7.5599542     -2619.6782     -4205.3595      1585.6813     -4205.3595     -5504.2486     -302.518        1601.4071      5753.4349
    215000   0.95562384     0.99575402     7.387316      -2709.8591     -4144.7283      1434.8692     -4144.7283     -5419.2179     -301.97518      1576.4648      5472.0466
    216000   0.98630748     0.98571806     7.4960614     -2716.036      -4196.9767      1480.9407     -4196.9767     -5499.0582     -301.57626      1603.6577      5586.3119
    217000   0.99286462     0.99072841     7.020936      -2680.11       -4170.8963      1490.7862     -4170.8963     -5364.3328     -301.37634      1494.8129      5096.0074
    218000   0.98997645     0.9869388      7.4201071     -2640.2008     -4126.6504      1486.4496     -4126.6504     -5397.6191     -300.83395      1571.8026      5578.0231
    219000   1.0356176      1.0036674      7.3632082     -2627.3033     -4182.2831      1554.9798     -4182.2831     -5427.1252     -301.12497      1545.967       5527.9015
    220000   0.97874416     1.0001559      7.3834533     -2786.7854     -4256.3697      1469.5844     -4256.3697     -5546.4047     -298.7311       1588.766       5390.8421
    221000   1.0378531      1.0308972      7.4201226     -2632.7321     -4191.0686      1558.3365     -4191.0686     -5472.8527     -299.2566       1581.0407      5585.5089
    222000   1.0206971      1.0210343      7.5027793     -2661.2226     -4193.7992      1532.5766     -4193.7992     -5484.1277     -301.58275      1591.9112      5648.5659
    223000   1.041933       1.0004925      7.6865272     -2572.3094     -4136.7718      1564.4624     -4136.7718     -5457.4392     -298.29949      1618.9669      5940.9911
    224000   1.0391916      1.02351        7.2885318     -2634.8863     -4195.2324      1560.3461     -4195.2324     -5441.4075     -299.41196      1545.587       5437.6099
    225000   1.0077846      0.99604645     7.5009354     -2654.4672     -4167.6558      1513.1886     -4167.6558     -5467.2761     -298.11505      1597.7354      5653.2789
    226000   0.98630648     0.99639737     7.5432832     -2698.8124     -4179.7515      1480.9392     -4179.7515     -5493.4928     -302.52881      1616.2701      5655.8366
    227000   0.96524069     0.99187524     7.5987014     -2666.9872     -4116.2961      1449.3089     -4116.2961     -5436.2659     -293.17998      1613.1498      5749.0408
    228000   1.0069907      0.98220752     7.5068183     -2640.2646     -4152.2612      1511.9966     -4152.2612     -5449.5301     -301.82005      1599.0889      5673.9972
    229000   1.0130457      1.0056097      7.3165812     -2657.5394     -4178.6275      1521.0881     -4178.6275     -5432.5845     -298.59211      1552.5491      5446.0232
    230000   1.0340237      1.0181582      7.4157205     -2613.3138     -4165.9004      1552.5865     -4165.9004     -5433.8918     -296.8268       1564.8182      5600.0516
    231000   1.0192473      1.0015679      7.3443745     -2682.1157     -4212.5155      1530.3998     -4212.5155     -5482.3909     -297.29723      1567.1726      5452.2297
    232000   0.98718752     0.99041007     7.5602977     -2654.9344     -4137.1965      1482.2621     -4137.1965     -5430.2469     -301.60174      1594.6522      5718.5591
    233000   0.99170223     0.98808322     7.3832716     -2707.1449     -4196.1858      1489.0409     -4196.1858     -5481.4753     -299.35507      1584.6446      5470.2814
    234000   1.0280012      0.97673354     7.3993315     -2651.0721     -4194.6159      1543.5438     -4194.6159     -5469.9501     -302.18802      1577.5222      5544.1415
    235000   1.0076621      0.98524896     7.2405691     -2753.946      -4266.9506      1513.0046     -4266.9506     -5528.7552     -299.15013      1560.9547      5265.4285
    236000   1.0102644      1.0075591      7.2743654     -2641.6117     -4158.5237      1516.912      -4158.5237     -5411.2511     -302.72685      1555.4542      5415.1944
    237000   1.0057137      0.98474803     7.1759315     -2719.3858     -4229.4649      1510.0791     -4229.4649     -5460.6412     -297.54595      1528.7222      5228.3985
    238000   0.98664033     0.98876828     7.2574984     -2745.109      -4226.5494      1481.4405     -4226.5494     -5471.1243     -297.64698      1542.2218      5293.0158
    239000   0.99774535     1.0045776      7.3025142     -2738.1609     -4236.2756      1498.1146     -4236.2756     -5506.0712     -297.21474      1567.0104      5349.8217
    240000   1.0020655      1.0162532      7.4734472     -2665.0295     -4169.6308      1504.6013     -4169.6308     -5447.582      -302.10371      1580.0549      5612.2718
    241000   1.0470615      1.0297927      7.2566276     -2694.5164     -4266.6792      1572.1628     -4266.6792     -5521.0279     -298.84883      1553.1976      5342.644
    242000   0.97392073     1.0095415      7.5326431     -2730.8521     -4193.1941      1462.342      -4193.1941     -5495.9149     -300.86233      1603.5832      5612.0123
    243000   1.0078311      1.0004809      7.5909388     -2618.0377     -4131.296       1513.2584     -4131.296      -5438.3022     -299.24948      1606.2557      5789.3928
    244000   1.0059956      1.0072587      7.4479678     -2703.0052     -4213.5076      1510.5024     -4213.5076     -5506.8053     -299.86514      1593.1629      5546.0761
    245000   0.97817522     1.0002803      7.5323638     -2664.0827     -4132.8128      1468.7301     -4132.8128     -5444.3695     -300.95801      1612.5147      5678.4724
    246000   1.0210747      1.0026409      7.4649139     -2684.8244     -4217.9681      1533.1437     -4217.9681     -5502.4963     -296.66075      1581.189       5583.0257
    247000   0.98942444     0.98044314     7.3732858     -2715.002      -4200.6228      1485.6208     -4200.6228     -5485.4022     -300.99509      1585.7745      5451.3644
    248000   1.0337521      1.0488108      7.6438642     -2585.8155     -4137.9942      1552.1787     -4137.9942     -5437.4618     -297.07855      1596.5461      5880.233
    249000   1.0355502      1.0162899      7.6169445     -2641.0054     -4195.884       1554.8786     -4195.884      -5515.0004     -305.46321      1624.5795      5795.228
    250000   1.01647        0.9968951      7.7377534     -2616.7377     -4142.9675      1526.2297     -4142.9675     -5479.1554     -299.4452       1635.6331      5953.2989
    251000   0.97550871     1.0006786      7.2616316     -2771.7978     -4236.5242      1464.7263     -4236.5242     -5493.8714     -302.07924      1559.4265      5270.9047
    252000   1.0062072      0.99361247     7.3747397     -2663.2913     -4174.1114      1510.8201     -4174.1114     -5442.8693     -298.55139      1567.3093      5504.6853
    253000   1.0069095      1.001535       7.0370226     -2709.1279     -4221.0025      1511.8746     -4221.0025     -5430.8078     -300.39231      1510.1976      5084.8064
    254000   1.0426352      0.99847316     7.7350925     -2568.9014     -4134.4182      1565.5168     -4134.4182     -5472.0902     -299.73769      1637.4097      5998.1881
    255000   1.0225726      1.0040062      7.6816925     -2669.24       -4204.6328      1535.3928     -4204.6328     -5530.2612     -304.45598      1630.0844      5838.7057
    256000   0.98440987     0.99667539     7.6091086     -2627.7147     -4105.8061      1478.0914     -4105.8061     -5415.1011     -301.46507      1610.76        5799.8399
    257000   1.0174094      1.0027893      6.9134095     -2691.2852     -4218.9254      1527.6402     -4218.9254     -5387.2506     -302.48669      1470.8119      4965.74
    258000   1.0040824      0.9996262      7.4848717     -2708.4359     -4216.0656      1507.6297     -4216.0656     -5521.775      -299.9518       1605.6613      5581.5187
    259000   0.98971663     1.0080375      7.5504664     -2710.3309     -4196.3904      1486.0595     -4196.3904     -5509.9172     -298.64425      1612.171       5652.2738
    260000   1.0069753      1.0152678      7.4494938     -2702.1885     -4214.162       1511.9735     -4214.162      -5525.0972     -294.36384      1605.299       5548.5829
    261000   1.0044029      1.0067465      7.3713733     -2679.9904     -4188.1014      1508.111      -4188.1014     -5450.9379     -300.46786      1563.3044      5484.2577
    262000   1.0250705      1.0215126      7.3721153     -2576.9125     -4116.0559      1539.1434     -4116.0559     -5376.1384     -304.30165      1564.3841      5588.1575
    263000   0.99236525     0.98113495     7.4417809     -2677.884      -4167.9204      1490.0364     -4167.9204     -5454.5249     -299.08173      1585.6862      5564.345
    264000   0.96391815     0.98597676     7.5787278     -2659.1549     -4106.478       1447.3231     -4106.478      -5401.4871     -302.27126      1597.2803      5734.7511
    265000   1.0322226      1.0139414      7.8434339     -2581.2121     -4131.0943      1549.8822     -4131.0943     -5491.5407     -299.91259      1660.359       6105.8722
    266000   1.0018025      0.99296666     7.3460933     -2644.0991     -4148.3055      1504.2064     -4148.3055     -5397.6695     -299.18787      1548.5519      5492.15
    267000   0.98130324     0.98325865     7.3941957     -2724.072      -4197.4988      1473.4268     -4197.4988     -5482.1946     -301.70678      1586.4026      5465.4534
    268000   0.97883431     0.9896072      7.4055508     -2698.2866     -4168.0063      1469.7197     -4168.0063     -5447.0835     -298.18444      1577.2616      5503.8153
    269000   1.0332404      1.0201908      7.7599336     -2595.5816     -4146.992       1551.4105     -4146.992      -5495.0065     -300.16143      1648.1759      5999.021
    270000   0.98887165     1.0022504      7.298498      -2712.5506     -4197.3414      1484.7908     -4197.3414     -5464.7864     -300.96892      1568.4139      5370.9837
    271000   0.99285187     0.98606667     7.0459936     -2744.2189     -4234.986       1490.7671     -4234.986      -5442.429      -302.16965      1509.6127      5059.6513
    272000   1.0092141      0.99418886     7.5572472     -2749.0256     -4264.3607      1515.335      -4264.3607     -5582.1132     -303.57734      1621.3298      5621.0892
    273000   1.0351271      0.99890544     7.3731715     -2639.9007     -4194.1441      1554.2433     -4194.1441     -5461.8471     -299.79015      1567.4932      5526.3391
    274000   1.0305069      0.99960544     7.0773198     -2788.2694     -4335.5755      1547.3061     -4335.5755     -5562.3076     -299.74883      1526.4809      5050.2965
    275000   1.0098055      1.0071658      7.355         -2722.9442     -4239.1671      1516.2229     -4239.1671     -5525.8865     -300.44024      1587.1596      5423.1696
    276000   1.0023713      1.0070145      7.7232701     -2636.9627     -4142.0232      1505.0606     -4142.0232     -5480.3874     -302.74023      1641.1044      5917.0328
    277000   1.0342108      1.0243164      7.2688079     -2752.8251     -4305.6926      1552.8675     -4305.6926     -5546.0673     -302.21138      1542.586       5297.8256
    278000   1.0331529      1.024568       7.396512      -2632.0943     -4183.3734      1551.2791     -4183.3734     -5459.4292     -300.87752      1576.9333      5559.9966
    279000   1.0095975      0.99873308     7.4043136     -2707.2747     -4223.1854      1515.9107     -4223.1854     -5513.8359     -300.24373      1590.8942      5493.457
    280000   0.96905565     1.0103828      7.1363296     -2775.5272     -4230.5643      1455.0371     -4230.5643     -5464.6603     -299.62722      1533.7233      5128.3956
    281000   0.98576682     0.99281771     7.5400769     -2686.5526     -4166.6815      1480.1289     -4166.6815     -5465.3658     -301.81254      1600.4968      5664.5451
    282000   0.94675265     0.96188702     7.0726221     -2813.3824     -4234.9315      1421.5491     -4234.9315     -5459.9254     -300.45676      1525.4507      5019.9806
    283000   1.0043637      1.0158528      7.4938977     -2657.1458     -4165.1979      1508.0521     -4165.1979     -5454.7552     -299.64841      1589.2057      5642.8057
    284000   1.0151487      1.0217695      7.3749849     -2693.0286     -4217.2744      1524.2458     -4217.2744     -5484.7127     -305.62734      1573.0656      5475.2197
    285000   1.0100545      1.0206561      7.2850983     -2710.4873     -4227.0842      1516.5969     -4227.0842     -5478.7136     -302.73349      1554.3629      5358.206
    286000   1.0371409      1.0523549      7.3666307     -2657.1113     -4214.3783      1557.267      -4214.3783     -5471.7486     -304.00033      1561.3706      5501.8841
    287000   1.0178061      1.0009425      7.5325775     -2629.9484     -4158.1843      1528.2359     -4158.1843     -5462.6422     -297.74195      1602.1999      5712.8434
    288000   0.9941396      1.0081728      7.7394766     -2620.75       -4113.4506      1492.7006     -4113.4506     -5454.0264     -295.90817      1636.484       5951.1952
    289000   0.9959648      1.003979       7.6316391     -2715.3687     -4210.8098      1495.4411     -4210.8098     -5536.1689     -303.29836      1628.6574      5737.1399
    290000   1.0422165      1.023877       7.4586895     -2586.3724     -4151.2604      1564.8881     -4151.2604     -5420.8291     -303.41989      1572.9886      5674.5839
    291000   1.0270909      1.028932       7.3316294     -2657.9313     -4200.1083      1542.177      -4200.1083     -5466.5352     -298.98606      1565.413       5462.2981
    292000   0.9744185      0.99906765     7.4752937     -2669.9377     -4133.0271      1463.0894     -4133.0271     -5424.0489     -301.54622      1592.568       5609.4087
    293000   0.97880634     0.99366325     7.4568556     -2665.3605     -4135.0382      1469.6777     -4135.0382     -5413.4034     -297.56566      1575.9308      5593.5645
    294000   0.98576094     0.98250189     7.4601253     -2729.2884     -4209.4084      1480.12       -4209.4084     -5510.8766     -299.17588      1600.6441      5533.2581
    295000   0.99155529     0.99834809     7.6320958     -2695.162      -4183.9823      1488.8203     -4183.9823     -5512.0738     -298.98252      1627.0741      5757.8524
    296000   1.0205149      0.99846299     7.3334908     -2691.8516     -4224.1547      1532.3031     -4224.1547     -5491.9411     -293.95487      1561.7412      5430.4394
    297000   0.95462401     0.98068541     7.1605313     -2773.1174     -4206.4854      1433.3679     -4206.4854     -5450.049      -299.93062      1543.4942      5157.6103
    298000   0.98775123     1.0036939      7.4241342     -2670.5687     -4153.6772      1483.1085     -4153.6772     -5437.6181     -303.30564      1587.2465      5552.1154
    299000   0.97894985     0.99378502     7.6644203     -2693.3711     -4163.2643      1469.8932     -4163.2643     -5486.6258     -301.55155      1624.913       5795.4446
    300000   0.98749723     1.0216801      7.0693479     -2702.9983     -4185.7254      1482.7271     -4185.7254     -5390.4967     -299.20826      1503.9795      5126.7383
    301000   1.0342953      1.016488       7.2997953     -2682.5685     -4235.563       1552.9944     -4235.563      -5499.1302     -300.56312      1564.1303      5402.4026
    302000   0.96150883     0.98517686     7.3559703     -2730.3867     -4174.0922      1443.7055     -4174.0922     -5441.7064     -300.19736      1567.8115      5416.8017
    303000   0.98480005     1.001638       7.604758      -2686.6753     -4165.3526      1478.6773     -4165.3526     -5489.2293     -298.3817       1622.2584      5736.0607
    304000   1.00325        0.99640923     7.6522512     -2635.2852     -4141.665       1506.3798     -4141.665      -5448.3167     -300.0218       1606.6735      5840.0525
    305000   0.95839224     0.98415714     7.3563303     -2759.5148     -4198.5407      1439.0259     -4198.5407     -5489.4237     -300.76333      1591.6462      5388.0723
    306000   0.96306371     0.97551088     7.3199215     -2723.7194     -4169.7596      1446.0402     -4169.7596     -5443.6169     -297.3935       1571.2509      5383.5428
    307000   1.0316805      1.0262388      7.6437812     -2557.0183     -4106.0865      1549.0682     -4106.0865     -5415.7793     -298.95522      1608.648       5908.9384
    308000   1.004224       0.9829207      7.1809029     -2751.5962     -4259.4385      1507.8423     -4259.4385     -5496.9703     -299.23563      1536.7674      5201.6944
    309000   0.9871473      0.9780155      7.2852349     -2671.1665     -4153.3681      1482.2017     -4153.3681     -5399.4221     -296.15187      1542.2058      5397.6782
    310000   1.0061454      0.99352664     7.343622      -2661.8954     -4172.6227      1510.7273     -4172.6227     -5435.6338     -300.96074      1563.9718      5471.6165
    311000   1.0410175      1.0316154      7.4489077     -2590.3404     -4153.4282      1563.0878     -4153.4282     -5429.45       -298.59141      1574.6133      5659.7819
    312000   1.0029105      0.97640422     7.2438338     -2736.4668     -4242.337       1505.8701     -4242.337      -5485.6705     -304.52728      1547.8609      5286.5235
    313000   1.0135589      0.99697989     7.6957375     -2600.9787     -4122.8374      1521.8587     -4122.8374     -5437.8487     -301.707        1616.7183      5922.5227
    314000   1.0403813      1.0264037      7.4171763     -2655.819      -4217.9515      1562.1325     -4217.9515     -5481.9124     -295.47337      1559.4343      5559.1588
    315000   0.9619648      0.99642353     6.9768059     -2764.7085     -4209.0987      1444.3901     -4209.0987     -5417.1694     -300.04485      1508.1156      4962.5321
    316000   0.93683928     0.96167928     7.4430847     -2698.2322     -4104.8963      1406.6642     -4104.8963     -5393.6373     -301.99008      1590.731       5545.4409
    317000   0.97569105     1.0040856      7.502715      -2729.9901     -4194.9902      1465.0001     -4194.9902     -5503.1666     -294.38545      1602.5618      5579.7272
    318000   0.99812336     0.99225411     7.1477038     -2699.6728     -4198.3551      1498.6822     -4198.3551     -5421.4808     -301.53222      1524.658       5216.8476
    319000   0.98853932     0.98993329     7.4436327     -2760.5947     -4244.8865      1484.2918     -4244.8865     -5533.9605     -304.84647      1593.9206      5483.6853
    320000   1.0348457      1.0097264      7.3400762     -2648.7744     -4202.5952      1553.8208     -4202.5952     -5462.433      -300.98917      1560.8269      5480.8103
    321000   0.98549378     0.97376981     7.2401223     -2696.4181     -4176.1371      1479.7189     -4176.1371     -5424.91       -297.5542       1546.3271      5322.4615
    322000   0.99602844     0.99357606     7.4113791     -2736.2772     -4231.8139      1495.5367     -4231.8139     -5530.2477     -302.94502      1601.3788      5472.2799
    323000   0.99609307     0.99197796     7.3999013     -2721.4384     -4217.0721      1495.6337     -4217.0721     -5500.7493     -298.36247      1582.0396      5474.4063
    324000   0.99398341     1.0090245      7.1313341     -2705.4231     -4197.8892      1492.4661     -4197.8892     -5421.6084     -300.25685      1523.976       5192.9669
    325000   0.97646137     0.99170803     7.2592705     -2728.9582     -4195.1149      1466.1567     -4195.1149     -5452.6897     -301.17736      1558.7522      5311.1292
    326000   1.0197215      1.0084034      7.4694136     -2623.4388     -4154.5507      1531.1119     -4154.5507     -5447.388      -301.65652      1594.4938      5649.395
    327000   0.98768808     0.99108618     7.6539668     -2610.8378     -4093.8515      1483.0136     -4093.8515     -5413.4267     -299.19675      1618.772       5866.4
    328000   0.96896875     0.95503736     7.5601878     -2726.0296     -4180.9362      1454.9066     -4180.9362     -5474.8371     -297.4467       1591.3476      5647.3422
    329000   1.0321858      1.0061275      7.4534603     -2580.6706     -4130.4976      1549.827      -4130.4976     -5415.9735     -297.02417      1582.5001      5674.494
    330000   0.99728692     1.0120921      7.5380994     -2635.7874     -4133.2137      1497.4263     -4133.2137     -5429.5685     -298.92483      1595.2796      5713.1201
    331000   1.048308       1.0108213      7.388853      -2613.4347     -4187.4691      1574.0344     -4187.4691     -5464.0895     -300.23823      1576.8586      5570.1733
    332000   1.0938361      1.0301656      7.4225616     -2541.279      -4183.6739      1642.3949     -4183.6739     -5439.38       -301.39454      1557.1006      5679.6634
    333000   0.97291854     0.97736164     7.3616001     -2737.8831     -4198.7203      1460.8372     -4198.7203     -5474.211      -303.8943       1579.385       5415.5406
    334000   1.0551842      1.0236614      7.421048      -2594.5879     -4178.9471      1584.3591     -4178.9471     -5454.3022     -297.80383      1573.159       5624.6781
    335000   0.984623       0.96020306     7.2441893     -2757.5133     -4235.9247      1478.4114     -4235.9247     -5491.6093     -300.51593      1556.2005      5265.8708
    336000   0.97184136     0.97523718     7.3917933     -2732.9724     -4192.1922      1459.2198     -4192.1922     -5490.9686     -299.27101      1598.0475      5453.8922
    337000   1.0012549      0.99848485     7.6207144     -2702.2969     -4205.6811      1503.3842     -4205.6811     -5538.5506     -299.19297      1632.0625      5738.1119
    338000   1.016398       1.0114372      7.449481      -2675.1993     -4201.3209      1526.1216     -4201.3209     -5500.0247     -303.97728      1602.6811      5575.5579
    339000   1.0338102      1.0249339      7.2014028     -2699.3854     -4251.6515      1552.2661     -4251.6515     -5493.7509     -297.30113      1539.4005      5276.6099
    340000   0.99118729     1.0000172      7.4586858     -2681.6936     -4169.9613      1488.2677     -4169.9613     -5463.8607     -298.19736      1592.0968      5579.2585
    341000   0.96668721     0.97923974     7.0862082     -2741.6002     -4193.0811      1451.4808     -4193.0811     -5411.9672     -305.2023       1524.0884      5106.8102
    342000   1.0227709      1.0024172      7.2310382     -2731.2951     -4266.9856      1535.6904     -4266.9856     -5530.8621     -300.04841      1563.9249      5277.5234
    343000   0.98944483     0.99369041     7.4490969     -2641.6508     -4127.3022      1485.6514     -4127.3022     -5415.6527     -294.19451      1582.5451      5608.6811
    344000   0.97215444     0.98565475     7.0322028     -2726.7068     -4186.3967      1459.6899     -4186.3967     -5383.671      -300.36754      1497.6418      5061.8893
    345000   1.0335208      1.0270902      6.9655138     -2735.9702     -4287.8016      1551.8314     -4287.8016     -5485.3162     -302.96416      1500.4787      4978.7637
    346000   1.0374563      1.0117129      7.1210152     -2713.6158     -4271.3564      1557.7406     -4271.3564     -5504.3667     -297.20957      1530.2199      5173.3455
    347000   1.0330291      1.0181847      7.7217796     -2586.9686     -4138.0618      1551.0932     -4138.0618     -5464.6224     -305.06715      1631.6278      5965.376
    348000   0.99226186     0.98345508     7.0098761     -2732.3455     -4222.2266      1489.8812     -4222.2266     -5416.5241     -300.28243      1494.5799      5031.5224
    349000   1.0063873      1.022778       7.5767199     -2696.3968     -4207.4873      1511.0905     -4207.4873     -5527.1442     -299.55116      1619.2081      5695.2853
    350000   1.0022533      0.97950509     7.8704226     -2536.4065     -4041.2898      1504.8833     -4041.2898     -5402.7288     -296.54361      1657.9827      6180.5694
    351000   0.97424108     1.005692       7.3056121     -2659.4783     -4122.3013      1462.823      -4122.3013     -5369.1793     -297.34696      1544.2249      5431.9353
    352000   1.0017163      0.99925209     7.4047258     -2693.2256     -4197.3026      1504.077      -4197.3026     -5484.6607     -301.06363      1588.4218      5507.9625
    353000   0.98614155     0.99149311     7.4814427     -2676.5956     -4157.2872      1480.6915     -4157.2872     -5447.7758     -298.98352      1589.4722      5609.5611
    354000   0.99345572     0.99094072     7.498418      -2684.7297     -4176.4034      1491.6738     -4176.4034     -5474.6003     -301.9721       1600.169       5620.2283
    355000   1.0219129      1.0281937      7.2858793     -2706.278      -4240.6802      1534.4022     -4240.6802     -5503.3212     -302.82044      1565.4614      5363.2803
    356000   1.0147888      1.0117439      7.4323736     -2684.8687     -4208.574       1523.7053     -4208.574      -5479.9666     -299.81212      1571.2047      5546.9411
    357000   1.0116048      0.99960133     7.3393026     -2677.0297     -4195.9542      1518.9246     -4195.9542     -5452.4706     -303.50829      1560.0247      5451.6982
    358000   1.0165282      1.0077065      7.3194365     -2664.7605     -4191.0776      1526.3171     -4191.0776     -5464.942      -304.4812       1578.3456      5441.9644
    359000   1.0113129      1.0201678      7.4474386     -2649.4494     -4167.9357      1518.4863     -4167.9357     -5442.8897     -300.01058      1574.9645      5599.0458
    360000   0.99848474     1.0030811      7.5131754     -2615.2371     -4114.462       1499.2248     -4114.462      -5398.6231     -299.68409      1583.8452      5706.0656
    361000   0.9988664      1.011604       7.4378737     -2772.8876     -4272.6855      1499.7979     -4272.6855     -5582.6912     -301.71854      1611.7242      5465.0138
    362000   1.0161076      1.0049217      7.4601422     -2677.87       -4203.5556      1525.6855     -4203.5556     -5482.3284     -303.27156      1582.0444      5584.6952
    363000   1.061759       1.0415304      7.2366584     -2710.7275     -4304.9586      1594.2312     -4304.9586     -5544.1381     -302.33896      1541.5184      5304.3158
    364000   0.98607588     0.98378078     7.1703456     -2739.0829     -4219.6758      1480.5929     -4219.6758     -5456.2537     -304.13674      1540.7147      5202.5148
    365000   0.97089549     0.97416184     7.4196862     -2714.2181     -4172.0177      1457.7996     -4172.0177     -5445.6389     -303.35596      1576.9771      5503.5396
    366000   1.0280922      1.0408236      7.7674334     -2598.0579     -4141.7383      1543.6804     -4141.7383     -5494.494      -300.60573      1653.3614      6004.8511
    367000   1.0253709      1.0115095      7.6187579     -2632.9602     -4172.5547      1539.5945     -4172.5547     -5497.135      -296.10826      1620.6886      5805.2816
    368000   1.0338654      1.0017737      7.1083127     -2664.993      -4217.342       1552.3489     -4217.342      -5427.1932     -295.54866      1505.3999      5207.8994
    369000   0.99698755     0.98742323     7.6140416     -2703.3137     -4200.2905      1496.9768     -4200.2905     -5537.4823     -298.90349      1636.0953      5729.7045
    370000   1.0159141      0.99988971     7.3063035     -2730.4456     -4255.8406      1525.395      -4255.8406     -5523.5793     -300.24124      1567.9799      5361.7337
    371000   1.0185375      1.0075455      7.4868675     -2673.2241     -4202.5581      1529.334      -4202.5581     -5508.2916     -301.68573      1607.4192      5618.941
    372000   0.99612382     0.98435517     7.6468883     -2665.2987     -4160.9786      1495.6799     -4160.9786     -5497.4771     -299.07383      1635.5723      5804.0993
    373000   1.0020538      0.99416959     7.1056035     -2730.5742     -4235.1579      1504.5837     -4235.1579     -5459.7836     -299.65342      1524.2791      5139.3177
    374000   1.0444253      1.0515368      7.7544404     -2567.0597     -4135.2644      1568.2046     -4135.2644     -5465.9303     -301.12758      1631.7935      6021.4587
    375000   1.01386        1.0046007      7.2429181     -2660.1182     -4182.429       1522.3108     -4182.429      -5414.98       -302.4504       1535.0013      5361.8579
    376000   1.0434707      1.024723       7.4243473     -2563.816      -4130.5872      1566.7712     -4130.5872     -5398.9169     -298.2865       1566.6162      5659.1041
    377000   1.0452774      1.0145586      7.1413801     -2752.8192     -4322.3033      1569.4841     -4322.3033     -5541.282      -302.01569      1520.9944      5156.6973
    378000   1.0098089      1.012687       7.5618035     -2664.1864     -4180.4145      1516.2281     -4180.4145     -5503.3274     -302.19401      1625.1069      5710.9749
    379000   0.94764732     0.98258026     6.9840106     -2743.7698     -4166.6623      1422.8925     -4166.6623     -5349.8779     -301.47762      1484.6933      4991.4505
    380000   0.98972667     0.9808926      7.395406      -2721.2894     -4207.364       1486.0746     -4207.364      -5489.4069     -301.07935      1583.1223      5469.5764
    381000   1.0101536      1.0137556      7.5940969     -2669.0583     -4185.804       1516.7457     -4185.804      -5501.8853     -299.24462      1615.326       5741.87
    382000   1.0000876      1.0097191      7.5478831     -2679.3678     -4180.9992      1501.6315     -4180.9992     -5498.4532     -300.16613      1617.6201      5680.3758
    383000   1.0009782      1.0015882      7.5828928     -2713.8037     -4216.7724      1502.9687     -4216.7724     -5540.3294     -305.67055      1629.2275      5684.7154
    384000   0.98501969     0.98703846     7.3606333     -2692.1415     -4171.1485      1479.0071     -4171.1485     -5446.4116     -295.86758      1571.1306      5460.2115
    385000   0.98687663     0.98462481     7.2550462     -2700.6206     -4182.4159      1481.7953     -4182.4159     -5438.5349     -298.88907      1555.0081      5334.7882
    386000   0.98508456     0.99070675     7.5637482     -2660.6245     -4139.7289      1479.1045     -4139.7289     -5449.1977     -301.72696      1611.1957      5716.6908
    387000   0.99567133     1.002049       7.4120911     -2681.1898     -4176.1903      1495.0005     -4176.1903     -5451.0519     -302.12737      1576.9889      5528.1558
    388000   1.0193068      0.98573377     7.1791554     -2663.6813     -4194.1705      1530.4892     -4194.1705     -5424.9802     -297.68701      1528.4968      5287.6738
    389000   0.99532581     0.99929238     7.059636      -2760.1        -4254.5817      1494.4817     -4254.5817     -5479.6614     -298.12099      1523.2007      5058.8801
    390000   0.99048718     0.97628844     7.8313901     -2609.0211     -4096.2376      1487.2165     -4096.2376     -5457.0895     -302.59785      1663.4497      6064.724
    391000   1.0371187      0.9996483      7.5918801     -2580.0075     -4137.2412      1557.2337     -4137.2412     -5437.54       -301.85366      1602.1525      5828.4655
    392000   1.0137685      1.016475       7.3684678     -2684.9186     -4207.092       1522.1734     -4207.092      -5467.8649     -300.4909       1561.2638      5476.1116
    393000   1.022803       1.0029258      7.7439294     -2661.4629     -4197.2017      1535.7388     -4197.2017     -5543.2353     -301.43698      1647.4706      5915.414
    394000   0.99136901     0.99626537     7.1729404     -2679.2347     -4167.7753      1488.5406     -4167.7753     -5394.7457     -300.63663      1527.6071      5265.2369
    395000   0.97304912     0.98923077     7.5743761     -2707.2691     -4168.3023      1461.0333     -4168.3023     -5480.6783     -297.65496      1610.031       5681.8172
    396000   1.0121822      1.0022329      7.9777346     -2590.4926     -4110.2842      1519.7916     -4110.2842     -5478.8122     -302.92893      1671.4569      6245.3379
    397000   0.98547011     1.0079825      7.1360814     -2795.9737     -4275.6571      1479.6834     -4275.6571     -5524.877      -296.06384      1545.2838      5107.6742
    398000   0.98543018     0.99117386     7.3249201     -2668.4553     -4148.0788      1479.6234     -4148.0788     -5401.2463     -301.81952      1554.9871      5444.343
    399000   0.98036795     1.0083866      7.2679412     -2740.419      -4212.4415      1472.0225     -4212.4415     -5464.6901     -297.27312      1549.5217      5309.2717
    400000   1.0010979      0.97497002     7.6119029     -2654.3341     -4157.4826      1503.1485     -4157.4826     -5483.6234     -301.29211      1627.4329      5776.3154
    401000   1.0112595      1.0175101      7.4617939     -2652.4819     -4170.8881      1518.4062     -4170.8881     -5447.6625     -302.90134      1579.6757      5611.9127
    402000   0.99895327     0.96781412     7.5872565     -2595.1331     -4095.0615      1499.9283     -4095.0615     -5404.7294     -298.10528      1607.7732      5808.219
    403000   1.0222426      1.0278713      7.3591589     -2635.2016     -4170.0989      1534.8973     -4170.0989     -5434.946      -295.10144      1559.9485      5515.5184
    404000   1.0060622      1.0162203      7.5491076     -2678.148      -4188.7504      1510.6024     -4188.7504     -5499.798      -294.11897      1605.1665      5682.9518
    405000   1.0074877      1.0229458      7.1951439     -2702.1847     -4214.9274      1512.7427     -4214.9274     -5455.5344     -301.45407      1542.061       5266.8786
    406000   0.98871736     0.99226164     7.3453165     -2774.7468     -4259.3059      1484.5591     -4259.3059     -5531.9782     -301.86375      1574.5361      5360.642
    407000   1.0187795      1.0263649      7.3479631     -2661.4765     -4191.1738      1529.6973     -4191.1738     -5459.1963     -304.52161      1572.5441      5476.8435
    408000   1.030001       1.0199869      7.6045749     -2595.3573     -4141.9037      1546.5465     -4141.9037     -5437.0483     -302.86937      1598.014       5827.1759
    409000   1.0024118      1.0125538      7.1835573     -2646.7713     -4151.8926      1505.1213     -4151.8926     -5383.028      -302.57292      1533.7083      5309.4591
    410000   0.95995456     1.0008181      7.5338289     -2713.4275     -4154.7992      1441.3718     -4154.7992     -5473.1259     -296.97908      1615.3057      5630.7503
    411000   0.97608455     0.98279225     7.3195471     -2788.5601     -4254.151       1465.5909     -4254.151      -5534.0932     -301.0159       1580.9581      5318.2874
    412000   0.96996527     0.96618071     7.3637495     -2726.8135     -4183.2164      1456.4029     -4183.2164     -5457.0944     -305.61141      1579.4895      5428.9908
    413000   1.0165312      1.0032947      7.3724679     -2665.2995     -4191.621       1526.3215     -4191.621      -5478.8577     -300.82872      1588.0654      5500.161
    414000   0.97567432     0.98909725     7.3758816     -2756.2118     -4221.1868      1464.975      -4221.1868     -5509.7056     -298.39295      1586.9118      5413.0296
    415000   1.0026038      1.0154312      7.616752      -2644.1678     -4149.5774      1505.4096     -4149.5774     -5453.4646     -305.39827      1609.2854      5791.8523
    416000   1.0183056      1.0136995      7.3590988     -2588.8734     -4117.8592      1528.9858     -4117.8592     -5359.9163     -298.09235      1540.1494      5561.78
    417000   0.97576857     0.99258075     7.7274544     -2686.4771     -4151.5936      1465.1165     -4151.5936     -5517.5128     -298.65739      1664.5766      5872.1528
    418000   0.995601       0.98305481     7.2327034     -2770.841      -4265.736       1494.8949     -4265.736      -5517.4769     -301.83796      1553.5789      5239.8217
    419000   1.0503137      1.0223335      7.1514199     -2633.3572     -4210.4032      1577.046      -4210.4032     -5437.4124     -298.31614      1525.3253      5287.2791
    420000   0.99204768     0.99523552     7.6739232     -2732.2262     -4221.7857      1489.5596     -4221.7857     -5550.4173     -302.28189      1630.9135      5767.1147
    421000   1.0258204      0.99083623     7.2042792     -2777.0579     -4317.3272      1540.2693     -4317.3272     -5570.3261     -305.48879      1558.4877      5202.1233
    422000   1.0113584      0.99600187     7.58124       -2618.1398     -4136.6944      1518.5547     -4136.6944     -5444.9588     -300.48106      1608.7454      5778.5486
    423000   0.99213851     1.0160811      7.4980052     -2711.9293     -4201.6253      1489.696      -4201.6253     -5496.7384     -303.46925      1598.5824      5592.5714
    424000   1.0306865      1.0148609      7.258153      -2619.0803     -4166.6561      1547.5758     -4166.6561     -5403.5931     -301.45435      1538.3913      5419.7695
    425000   1.0321899      1.0269337      6.9970878     -2712.9022     -4262.7353      1549.8331     -4262.7353     -5455.794      -301.8602       1494.9189      5036.8018
    426000   1.0336061      1.005202       7.6089222     -2522.2066     -4074.1661      1551.9595     -4074.1661     -5372.7052     -297.0801       1595.6192      5905.1415
    427000   1.0004066      1.0270718      7.5192642     -2620.427      -4122.5375      1502.1105     -4122.5375     -5414.3756     -300.42144      1592.2596      5707.6194
    428000   0.99970232     1.0183231      7.0362416     -2683.8259     -4184.8789      1501.053      -4184.8789     -5382.2706     -297.91252      1495.3042      5109.2434
    429000   0.95868023     0.95998095     7.1900603     -2803.9584     -4243.4168      1439.4584     -4243.4168     -5482.3742     -301.73859      1540.696       5159.4745
    430000   1.0097878      0.99643495     7.7552868     -2643.2118     -4159.4081      1516.1963     -4159.4081     -5509.4291     -297.60943      1647.6305      5946.2442
    431000   0.99707621     1.0117108      7.480878      -2680.8687     -4177.9786      1497.1099     -4177.9786     -5470.038      -300.78432      1592.8437      5604.6627
    432000   1.0432807      1.0027424      7.3708318     -2589.1199     -4155.606       1566.486      -4155.606      -5418.3368     -304.37802      1567.1088      5574.5285
    433000   0.9831266      0.96787292     7.6178123     -2702.6404     -4178.805       1476.1646     -4178.805      -5509.3254     -295.51912      1626.0395      5734.5541
    434000   1.0642538      1.0370728      7.5184235     -2578.3576     -4176.3347      1597.9771     -4176.3347     -5455.8236     -303.15014      1582.6391      5748.7578
    435000   0.99143932     0.98824182     7.3593652     -2655.9507     -4144.5968      1488.6461     -4144.5968     -5418.3473     -291.1134       1564.8639      5494.9978
    436000   1.0049949      0.99478268     7.2355793     -2676.7699     -4185.7698      1508.9999     -4185.7698     -5424.0998     -301.28785      1539.6178      5337.0781
    437000   0.98855165     1.0026033      7.4535585     -2706.1441     -4190.4544      1484.3103     -4190.4544     -5481.3325     -301.49475      1592.3728      5549.1292
    438000   0.98053014     0.98200597     7.4293993     -2728.8311     -4201.0971      1472.266      -4201.0971     -5492.7847     -296.85353      1588.5411      5499.6844
    439000   0.96555285     0.98322606     7.5100962     -2751.8299     -4201.6075      1449.7776     -4201.6075     -5514.5823     -298.72759      1611.7024      5566.0624
    440000   0.9992777      1.0127498      7.1398973     -2749.2996     -4249.7151      1500.4155     -4249.7151     -5484.4525     -302.45179      1537.1892      5158.5747
    441000   0.99166795     0.95682309     7.0338997     -2766.7698     -4255.7592      1488.9894     -4255.7592     -5470.1481     -301.16482      1515.5537      5023.7057
    442000   1.0134275      1.0276969      7.3549848     -2642.0264     -4163.6878      1521.6614     -4163.6878     -5420.8431     -299.48999      1556.6453      5504.0705
    443000   0.9503616      0.98600197     7.4069464     -2710.1302     -4137.0981      1426.9679     -4137.0981     -5424.2138     -296.82399      1583.9397      5493.5174
    444000   1.0160036      1.0032961      7.4587506     -2667.0745     -4192.6039      1525.5294     -4192.6039     -5460.9976     -303.81159      1572.2052      5593.9494
    445000   1.0206827      1.0058516      7.0497515     -2668.7108     -4201.2659      1532.5551     -4201.2659     -5402.6274     -304.44307      1505.8045      5139.3215
    446000   1.0518308      1.0306626      7.4868551     -2634.4724     -4213.7962      1579.3239     -4213.7962     -5498.8173     -300.58806      1585.6091      5657.6791
    447000   0.97996036     1.0035372      7.5922115     -2739.0629     -4210.4733      1471.4105     -4210.4733     -5527.6874     -297.71341      1614.9274      5669.7772
    448000   1.0126056      1.0137668      7.431826      -2663.7579     -4184.1851      1520.4273     -4184.1851     -5457.488      -297.13888      1570.4418      5567.4454
    449000   1.0092066      1.0130573      7.4911548     -2708.5547     -4223.8785      1515.3238     -4223.8785     -5530.0185     -303.11325      1609.2533      5588.3588
    450000   0.99728493     0.99866049     7.2308407     -2731.7832     -4229.2065      1497.4233     -4229.2065     -5467.5401     -302.27007      1540.6037      5276.8165
    451000   1.0242558      1.0279676      7.5144664     -2669.6372     -4207.5572      1537.92       -4207.5572     -5502.0718     -299.69753      1594.2121      5653.0954
    452000   1.0208248      0.99587722     7.5501442     -2624.1022     -4156.8707      1532.7685     -4156.8707     -5459.263      -300.15331      1602.5456      5738.1457
    453000   1.0188081      1.0214834      7.5401653     -2670.3552     -4200.0955      1529.7404     -4200.0955     -5501.8327     -295.17438      1596.9116      5680.8405
    454000   1.0389279      1.0514578      7.3829238     -2689.8745     -4249.8247      1559.9502     -4249.8247     -5519.3332     -298.52341      1568.0319      5487.1665
    455000   0.98442686     1.0181283      7.3571737     -2724.8285     -4202.9454      1478.1169     -4202.9454     -5471.8017     -299.59027      1568.4466      5423.6928
    456000   0.99903528     0.99611168     7.395243      -2719.5961     -4219.6475      1500.0515     -4219.6475     -5500.596      -300.15779      1581.1063      5471.0893
    457000   0.97935484     0.99054082     7.7611431     -2701.7736     -4172.2749      1470.5013     -4172.2749     -5522.3028     -300.75573      1650.7836      5894.1686
    458000   1.028532       1.0370108      7.6143034     -2615.7488     -4160.0896      1544.3408     -4160.0896     -5460.3505     -297.66198      1597.9229      5817.5594
    459000   1.0135174      1.0227215      7.3221007     -2706.0325     -4227.8288      1521.7963     -4227.8288     -5475.7532     -303.06367      1550.988       5403.6433
    460000   1.0103284      1.0164892      7.3689206     -2654.8729     -4171.881       1517.0081     -4171.881      -5446.8268     -298.0229       1572.9687      5506.6587
    461000   1.006939       0.97291065     7.3891059     -2686.0273     -4197.9463      1511.919      -4197.9463     -5466.5532     -299.44325      1568.0502      5497.8608
    462000   0.99232968     1.0073554      7.4072346     -2706.8811     -4196.8641      1489.983      -4196.8641     -5470.9319     -302.8397       1576.9074      5497.0857
    463000   1.0227906      1.0073039      7.6804184     -2641.0963     -4176.8164      1535.7201     -4176.8164     -5498.8903     -296.17838      1618.2523      5865.4384
    464000   1.0077444      0.98425235     7.4310779     -2690.603      -4203.7313      1513.1283     -4203.7313     -5490.5801     -297.83409      1584.6829      5539.7717
    465000   1.0093916      0.97613425     7.2435244     -2692.9939     -4208.5954      1515.6015     -4208.5954     -5453.8587     -301.10633      1546.3696      5329.6538
    466000   0.9719445      1.0268507      7.4598887     -2701.4491     -4160.8238      1459.3747     -4160.8238     -5435.3352     -303.23302      1577.7445      5560.8353
    467000   1.0326828      1.0354233      7.4803307     -2626.5627     -4177.1359      1550.5733     -4177.1359     -5471.6512     -301.86747      1596.3828      5658.3625
    468000   1.0196859      1.0242367      7.535154      -2662.0845     -4193.1429      1531.0584     -4193.1429     -5487.0885     -305.52759      1599.4732      5683.5609
    469000   1.003655       0.99533205     7.7725049     -2630.9906     -4137.9786      1506.9879     -4137.9786     -5486.9562     -299.3847       1648.3623      5977.5354
    470000   1.0269372      1.0015185      7.2929169     -2651.2687     -4193.2149      1541.9462     -4193.2149     -5439.946      -299.06795      1545.7991      5426.0842
    471000   0.98214933     0.99255081     7.2469106     -2745.9945     -4220.6917      1474.6972     -4220.6917     -5461.5719     -299.4824       1540.3626      5280.4036
    472000   1.025318       1.0023267      7.1822755     -2681.6914     -4221.2063      1539.515      -4221.2063     -5464.4112     -297.93589      1541.1408      5273.1194
    473000   0.9968614      0.99805033     6.9907763     -2744.8072     -4241.5946      1496.7874     -4241.5946     -5445.1518     -303.41001      1506.9671      4997.9064
    474000   0.98558893     0.9817028      7.3210682     -2652.8127     -4132.6745      1479.8618     -4132.6745     -5378.1461     -298.62932      1544.1009      5455.7195
    475000   1.0320446      1.0271016      7.5868657     -2657.432      -4207.047       1549.615      -4207.047      -5518.9757     -297.9944       1609.9231      5745.4873
    476000   1.0092254      1.0050019      7.3398783     -2727.7885     -4243.1403      1515.3519     -4243.1403     -5516.9198     -297.68714      1571.4666      5401.5771
    477000   1.0045447      1.0050202      7.5658174     -2649.7419     -4158.0658      1508.3239     -4158.0658     -5459.8441     -300.5701       1602.3484      5729.865
    478000   0.98962297     0.98761648     7.3057624     -2707.8297     -4193.7485      1485.9189     -4193.7485     -5473.2003     -293.41602      1572.8678      5383.7505
    479000   0.99938958     1.0309538      7.1981302     -2767.7518     -4268.3352      1500.5835     -4268.3352     -5519.2601     -299.18006      1550.105       5204.619
    480000   1.0109364      1.0068012      7.1875115     -2691.5632     -4209.4841      1517.9209     -4209.4841     -5437.3804     -300.13676      1528.033       5269.0468
    481000   1.0169899      0.9885228      7.6365696     -2592.1313     -4119.1417      1527.0104     -4119.1417     -5411.9733     -301.49494      1594.3266      5865.838
    482000   1.003902       0.98875801     7.1287354     -2680.3556     -4187.7144      1507.3588     -4187.7144     -5411.6843     -301.59085      1525.5607      5215.1563
    483000   1.0279696      1.0117397      7.3784462     -2678.0999     -4221.5962      1543.4963     -4221.5962     -5492.3001     -296.13538      1566.8393      5493.982
    484000   0.98181099     0.98948768     7.313875      -2684.4001     -4158.5893      1474.1892     -4158.5893     -5412.9596     -301.09436      1555.4646      5416.1652
    485000   0.99259988     1.0067595      7.4036489     -2680.6934     -4171.0821      1490.3887     -4171.0821     -5454.2775     -300.67605      1583.8714      5519.302
    486000   1.0132112      0.99069806     7.0852397     -2707.6873     -4229.0239      1521.3366     -4229.0239     -5448.9037     -298.29282      1518.1726      5139.6504
    487000   1.0208396      1.0267316      7.5602259     -2667.3474     -4200.138       1532.7906     -4200.138      -5507.2783     -302.68381      1609.8241      5706.0667
    488000   0.99110232     1.0222689      7.5339616     -2606.5672     -4094.7074      1488.1401     -4094.7074     -5386.897      -299.10394      1591.2935      5737.7575
    489000   1.0291915      1.0038028      7.38096       -2593.9984     -4139.3294      1545.331      -4139.3294     -5384.6419     -304.54463      1549.8571      5580.8677
    490000   1.026203       0.99911269     7.3876262     -2604.8019     -4145.6457      1540.8438     -4145.6457     -5402.2933     -298.30217      1554.9497      5577.4474
    491000   0.94630704     0.9627904      7.5851144     -2684.4344     -4105.3144      1420.88       -4105.3144     -5421.6713     -304.00591      1620.3628      5716.5452
    492000   1.0363888      1.012296       7.7082218     -2570.4423     -4126.5801      1556.1378     -4126.5801     -5452.1878     -301.92765      1627.5354      5966.8863
    493000   1.0241388      0.99743428     7.5496279     -2623.8642     -4161.6087      1537.7445     -4161.6087     -5459.5726     -300.6413       1598.6052      5737.8119
    494000   0.98515974     0.99058778     7.1883371     -2788.226      -4267.4434      1479.2173     -4267.4434     -5506.3864     -301.91861      1540.8616      5173.2983
    495000   1.0216486      1.0099609      7.6485084     -2545.2833     -4079.2886      1534.0053     -4079.2886     -5374.0485     -299.4659       1594.2257      5925.9091
    496000   1.0342345      1.025203       7.2769237     -2651.7559     -4204.659       1552.9031     -4204.659      -5463.0398     -297.73727      1556.118       5407.8836
    497000   0.9828699      0.9934847      7.3403034     -2728.8088     -4204.588       1475.7791     -4204.588      -5465.7962     -301.38706      1562.5953      5401.0275
    498000   1.0947624      1.0560681      7.205064      -2593.9349     -4237.7207      1643.7858     -4237.7207     -5472.0441     -301.88239      1536.2058      5386.1156
    499000   0.95978827     1.0068646      7.408213      -2734.2283     -4175.3504      1441.1221     -4175.3504     -5462.2705     -296.33762      1583.2577      5470.8221
    500000   1.00664        0.99454591     7.4754349     -2633.8626     -4145.3326      1511.4699     -4145.3326     -5436.0224     -301.85432      1592.5442      5645.6402
colvars: Saving collective variables state to "prod.colvars.state".
Loop time of 5707.16 on 1 procs for 500000 steps with 1002 atoms

Performance: 37847.181 tau/day, 87.609 timesteps/s
100.0% CPU use with 1 MPI tasks x 1 OpenMP threads

MPI task timing breakdown:
Section |  min time  |  avg time  |  max time  |%varavg| %total
---------------------------------------------------------------
Pair    | 25.66      | 25.66      | 25.66      |   0.0 |  0.45
Kspace  | 5581.4     | 5581.4     | 5581.4     |   0.0 | 97.80
Neigh   | 0.064147   | 0.064147   | 0.064147   |   0.0 |  0.00
Comm    | 54.138     | 54.138     | 54.138     |   0.0 |  0.95
Output  | 0.066234   | 0.066234   | 0.066234   |   0.0 |  0.00
Modify  | 40.923     | 40.923     | 40.923     |   0.0 |  0.72
Other   |            | 4.888      |            |       |  0.09

Nlocal:           1002 ave        1002 max        1002 min
Histogram: 1 0 0 0 0 0 0 0 0 0
Nghost:           7755 ave        7755 max        7755 min
Histogram: 1 0 0 0 0 0 0 0 0 0
Neighs:              0 ave           0 max           0 min
Histogram: 1 0 0 0 0 0 0 0 0 0

Total # of neighbors = 0
Ave neighs/atom = 0
Neighbor list builds = 47047
Dangerous builds = 0

undump         1
unfix          1
unfix          2
unfix          3
Total wall time: 3:29:47
